%%MatrixMarket vector coordinate real general
800
1   5.51620447828516731192e+01
2   8.94248837408472212473e+01
3   1.31223295390557922246e+02
4   1.70314194789979239886e+02
5   2.09992058248554542388e+02
6   2.49616541779958168945e+02
7   2.88814201033723861656e+02
8   3.28345713047572644427e+02
9   3.67302491058807902391e+02
10   4.06649618317802151068e+02
11   4.45400431836135055619e+02
12   4.84549837328692376559e+02
13   5.23099780639238588265e+02
14   5.62049518521592062825e+02
15   6.00399334870533834874e+02
16   6.39149121247906577992e+02
17   6.77298919073398678847e+02
18   7.15848712526098438502e+02
19   7.53798507649054840840e+02
20   7.92148302134030927846e+02
21   8.29898096862695751952e+02
22   8.68047891498279341249e+02
23   9.05597686169413236712e+02
24   9.43547480826970627277e+02
25   9.80897275489714161267e+02
26   1.01864707015047667937e+03
27   1.05579686481199655645e+03
28   1.09334665947322605462e+03
29   1.13029645413456614733e+03
30   1.16764624879586426687e+03
31   1.20439604345717725664e+03
32   1.24154583811848237929e+03
33   1.27809563277979691520e+03
34   1.31504542744110676722e+03
35   1.35139522210241716493e+03
36   1.38814501676372378824e+03
37   1.42429481142503391311e+03
38   1.46084460608634481105e+03
39   1.49679440074765534519e+03
40   1.53314419540896392391e+03
41   1.56889399007027418520e+03
42   1.60504378473158476481e+03
43   1.64059357939289270689e+03
44   1.67654337405420255891e+03
45   1.71189316871551204713e+03
46   1.74764296337682367266e+03
47   1.78279275803813220591e+03
48   1.81834255269944196698e+03
49   1.85329234736075113688e+03
50   1.88864214202205857873e+03
51   1.92339193668337111376e+03
52   1.95854173134467851014e+03
53   1.99309152600599122707e+03
54   2.02804132066729948747e+03
55   2.06239111532860488296e+03
56   2.09714090998991832748e+03
57   2.13129070465123186295e+03
58   2.16584049931253548493e+03
59   2.19979029397384920230e+03
60   2.23414008863515482517e+03
61   2.26788988329646326747e+03
62   2.30203967795777134597e+03
63   2.33558947261908224391e+03
64   2.36953926728039050431e+03
65   2.40288906194170294839e+03
66   2.43663885660300820746e+03
67   2.46978865126432265242e+03
68   2.50333844592563036713e+03
69   2.53628824058693817278e+03
70   2.56963803524825198110e+03
71   2.60238782990955769492e+03
72   2.63553762457086486393e+03
73   2.66808741923217894509e+03
74   2.70103721389348402226e+03
75   2.73338700855480010432e+03
76   2.76613680321609899693e+03
77   2.79828659787741298715e+03
78   2.83083639253871888286e+03
79   2.86278618720002850750e+03
80   2.89513598186134004209e+03
81   2.92688577652264757489e+03
82   2.95903557118395383441e+03
83   2.99058536584527200830e+03
84   3.02253516050657890446e+03
85   3.05388495516788952955e+03
86   3.08563474982919433387e+03
87   3.11678454449050468611e+03
88   3.14833433915181285556e+03
89   3.17928413381311975172e+03
90   3.21063392847442992206e+03
91   3.24138372313574063810e+03
92   3.27253351779704553337e+03
93   3.30308331245836325252e+03
94   3.33403310711966423696e+03
95   3.36438290178097577154e+03
96   3.39513269644228057587e+03
97   3.42528249110359729457e+03
98   3.45583228576490319028e+03
99   3.48578208042621281493e+03
100   3.51613187508752025678e+03
101   3.54588166974882960858e+03
102   3.57603146441013495860e+03
103   3.60558125907144994926e+03
104   3.63553105373275775491e+03
105   3.66488084839406019455e+03
106   3.69463064305537363907e+03
107   3.72378043771667717010e+03
108   3.75333023237799079652e+03
109   3.78228002703929951167e+03
110   3.81162982170060968201e+03
111   3.84037961636191266734e+03
112   3.86952941102322301958e+03
113   3.89807920568453755550e+03
114   3.92702900034584490641e+03
115   3.95537879500715325776e+03
116   3.98412858966845760733e+03
117   4.01227838432976977856e+03
118   4.04082817899107567428e+03
119   4.06877797365238620841e+03
120   4.09712776831369592401e+03
121   4.12487756297500072833e+03
122   4.15302735763630334986e+03
123   4.18057715229761743103e+03
124   4.20852694695892205345e+03
125   4.23587674162023631652e+03
126   4.26362653628154657781e+03
127   4.29077633094285829429e+03
128   4.31832612560416509950e+03
129   4.34527592026547608839e+03
130   4.37262571492677489005e+03
131   4.39937550958808606083e+03
132   4.42652530424940869125e+03
133   4.45307509891070458252e+03
134   4.48002489357201920939e+03
135   4.50637468823332437751e+03
136   4.53312448289463009132e+03
137   4.55927427755594180780e+03
138   4.58582407221724224655e+03
139   4.61177386687855323544e+03
140   4.63812366153987022699e+03
141   4.66387345620117321232e+03
142   4.69002325086247401487e+03
143   4.71557304552378809603e+03
144   4.74152284018509817543e+03
145   4.76687263484640516253e+03
146   4.79262242950772088079e+03
147   4.81777222416903350677e+03
148   4.84332201883032757905e+03
149   4.86827181349164584390e+03
150   4.89362160815294009808e+03
151   4.91837140281426309230e+03
152   4.94352119747556116636e+03
153   4.96807099213687433803e+03
154   4.99302078679817259399e+03
155   5.01737058145949231402e+03
156   5.04212037612079711835e+03
157   5.06627017078210519685e+03
158   5.09081996544341200206e+03
159   5.11476976010473117640e+03
160   5.13911955476602815907e+03
161   5.16286934942733932985e+03
162   5.18701914408863922290e+03
163   5.21056893874995694205e+03
164   5.23451873341125428851e+03
165   5.25786852807256764208e+03
166   5.28161832273387335590e+03
167   5.30476811739518780087e+03
168   5.32831791205649460608e+03
169   5.35126770671780013799e+03
170   5.37461750137910712510e+03
171   5.39736729604041556740e+03
172   5.42051709070172455540e+03
173   5.44306688536303408910e+03
174   5.46601668002433962101e+03
175   5.48836647468564569863e+03
176   5.51111626934695777891e+03
177   5.53326606400825676246e+03
178   5.55581585866956447717e+03
179   5.57776565333087364706e+03
180   5.60011544799218972912e+03
181   5.62186524265349362395e+03
182   5.64401503731480534043e+03
183   5.66556483197611214564e+03
184   5.68751462663741858705e+03
185   5.70886442129872648366e+03
186   5.73061421596003310697e+03
187   5.75176401062133481901e+03
188   5.77331380528264435270e+03
189   5.79426359994395352260e+03
190   5.81561339460526323819e+03
191   5.83636318926656349504e+03
192   5.85751298392786702607e+03
193   5.87806277858918929269e+03
194   5.89901257325048845814e+03
195   5.91936236791179089778e+03
196   5.94011216257310752553e+03
197   5.96026195723441196606e+03
198   5.98081175189572513773e+03
199   6.00076154655703157914e+03
200   6.02111134121834311372e+03
201   6.04086113587963973259e+03
202   6.06101093054094417312e+03
203   6.08056072520226280176e+03
204   6.10051051986357651913e+03
205   6.11986031452486986382e+03
206   6.13961010918618285359e+03
207   6.15875990384748365614e+03
208   6.17830969850879682781e+03
209   6.19725949317010326922e+03
210   6.21660928783141480380e+03
211   6.23535908249271687964e+03
212   6.25450887715402404865e+03
213   6.27305867181532448740e+03
214   6.29200846647664639022e+03
215   6.31035826113794155390e+03
216   6.32910805579924272024e+03
217   6.34725785046055625571e+03
218   6.36580764512186306092e+03
219   6.38375743978317223082e+03
220   6.40210723444448285591e+03
221   6.41985702910577856528e+03
222   6.43800682376709482924e+03
223   6.45555661842840527243e+03
224   6.47350641308971444232e+03
225   6.49085620775101415347e+03
226   6.50860600241232350527e+03
227   6.52575579707363522175e+03
228   6.54330559173493111302e+03
229   6.56025538639623755444e+03
230   6.57760518105754272256e+03
231   6.59435497571885571233e+03
232   6.61150477038016106235e+03
233   6.62805456504146968655e+03
234   6.64500435970277794695e+03
235   6.66135415436408857204e+03
236   6.67810394902537973394e+03
237   6.69425374368670145486e+03
238   6.71080353834800098412e+03
239   6.72675333300931742997e+03
240   6.74310312767061532213e+03
241   6.75885292233191921696e+03
242   6.77500271699323548091e+03
243   6.79055251165454046713e+03
244   6.80650230631584599905e+03
245   6.82185210097715116717e+03
246   6.83760189563846233796e+03
247   6.85275169029976405000e+03
248   6.86830148496106448874e+03
249   6.88325127962237729662e+03
250   6.89860107428368064575e+03
251   6.91335086894498726906e+03
252   6.92850066360630080453e+03
253   6.94305045826760579075e+03
254   6.95800025292891314166e+03
255   6.97235004759022285725e+03
256   6.98709984225151856663e+03
257   7.00124963691282846412e+03
258   7.01579943157414436428e+03
259   7.02974922623544171074e+03
260   7.04409902089675324532e+03
261   7.05784881555805168318e+03
262   7.07199861021937249461e+03
263   7.08554840488066656690e+03
264   7.09949819954197482730e+03
265   7.11284799420328545239e+03
266   7.12659778886458934721e+03
267   7.13974758352588924026e+03
268   7.15329737818719695497e+03
269   7.16624717284850885335e+03
270   7.17959696750981947844e+03
271   7.19234676217112064478e+03
272   7.20549655683242963278e+03
273   7.21804635149373280001e+03
274   7.23099614615503651294e+03
275   7.24334594081634804752e+03
276   7.25609573547765467083e+03
277   7.26824553013895729237e+03
278   7.28079532480027137353e+03
279   7.29274511946155780606e+03
280   7.30509491412287206913e+03
281   7.31684470878418414941e+03
282   7.32899450344548677094e+03
283   7.34054429810679357615e+03
284   7.35249409276810274605e+03
285   7.36384388742940245720e+03
286   7.37559368209072272293e+03
287   7.38674347675201170205e+03
288   7.39829327141331668827e+03
289   7.40924306607462858665e+03
290   7.42059286073593739275e+03
291   7.43134265539722855465e+03
292   7.44249245005854936608e+03
293   7.45304224471986071876e+03
294   7.46399203938115624624e+03
295   7.47434183404246869031e+03
296   7.48509162870377076615e+03
297   7.49524142336508248263e+03
298   7.50579121802638655936e+03
299   7.51574101268769027229e+03
300   7.52609080734899907839e+03
301   7.53584060201030115422e+03
302   7.54599039667161196121e+03
303   7.55554019133291512844e+03
304   7.56548998599422429834e+03
305   7.57483978065552219050e+03
306   7.58458957531683154230e+03
307   7.59373936997812779737e+03
308   7.60328916463943824056e+03
309   7.61223895930074468197e+03
310   7.62158875396205348807e+03
311   7.63033854862336102087e+03
312   7.63948834328466455190e+03
313   7.64803813794597499509e+03
314   7.65698793260727416055e+03
315   7.66533772726858205715e+03
316   7.67408752192989322793e+03
317   7.68223731659119130200e+03
318   7.69078711125249355973e+03
319   7.69873690591380091064e+03
320   7.70708670057511608320e+03
321   7.71483649523641815904e+03
322   7.72298628989772259956e+03
323   7.73053608455903304275e+03
324   7.73848587922033402720e+03
325   7.74583567388164374279e+03
326   7.75358546854295127559e+03
327   7.76073526320425389713e+03
328   7.76828505786556252133e+03
329   7.77523485252686350577e+03
330   7.78258464718817140238e+03
331   7.78933444184947074973e+03
332   7.79648423651077882823e+03
333   7.80303403117208290496e+03
334   7.80998382583339207486e+03
335   7.81633362049469633348e+03
336   7.82308341515599840932e+03
337   7.82923320981730921631e+03
338   7.83578300447861329303e+03
339   7.84173279913991882495e+03
340   7.84808259380122581206e+03
341   7.85383238846253971133e+03
342   7.85998218312383869488e+03
343   7.86553197778513731464e+03
344   7.87148177244644830353e+03
345   7.87683156710775074316e+03
346   7.88258136176905281900e+03
347   7.88773115643036089750e+03
348   7.89328095109166770271e+03
349   7.89823074575297050615e+03
350   7.90358054041427658376e+03
351   7.90833033507558684505e+03
352   7.91348012973688128113e+03
353   7.91802992439819354331e+03
354   7.92297971905950817018e+03
355   7.92732951372080151486e+03
356   7.93207930838211268565e+03
357   7.93622910304341257870e+03
358   7.94077889770472120290e+03
359   7.94472869236602673482e+03
360   7.94907848702732735546e+03
361   7.95282828168864034524e+03
362   7.95697807634994478576e+03
363   7.96052787101125068148e+03
364   7.96447766567254711845e+03
365   7.96782746033385410556e+03
366   7.97157725499516527634e+03
367   7.97472704965646516939e+03
368   7.97827684431776560814e+03
369   7.98122663897907932551e+03
370   7.98457643364037721767e+03
371   7.98732622830168838846e+03
372   7.99047602296298646252e+03
373   7.99302581762430236267e+03
374   7.99597561228559970914e+03
375   7.99832540694690669625e+03
376   8.00107520160821059108e+03
377   8.00322499626951776008e+03
378   8.00577479093082456529e+03
379   8.00772458559212373075e+03
380   8.01007438025342980836e+03
381   8.01182417491473643167e+03
382   8.01397396957604451018e+03
383   8.01552376423734858690e+03
384   8.01747355889865775680e+03
385   8.01882335355996110593e+03
386   8.02057314822126772924e+03
387   8.02172294288256853179e+03
388   8.02327273754387260851e+03
389   8.02422253220517177397e+03
390   8.02557232686647876108e+03
391   8.02632212152778265590e+03
392   8.02747191618908982491e+03
393   8.02802171085039753962e+03
394   8.02897150551170034305e+03
395   8.02932130017301005864e+03
396   8.03007109483431213448e+03
397   8.03022088949561384652e+03
398   8.03077068415692519920e+03
399   8.03072047881821708870e+03
400   8.03107027347952953278e+03
401   8.03082006814083615609e+03
402   8.03096986280213877762e+03
403   8.03051965746344285435e+03
404   8.03046945212474656728e+03
405   8.02981924678606083035e+03
406   8.02956904144735199225e+03
407   8.02871883610865916125e+03
408   8.02826863076996505697e+03
409   8.02721842543127422687e+03
410   8.02656822009258212347e+03
411   8.02531801475388238032e+03
412   8.02446780941518045438e+03
413   8.02301760407649271656e+03
414   8.02196739873779188201e+03
415   8.02031719339909432165e+03
416   8.01906698806040367344e+03
417   8.01721678272171357094e+03
418   8.01576657738300673373e+03
419   8.01371637204431408463e+03
420   8.01206616670562198124e+03
421   8.00981596136692860455e+03
422   8.00796575602823031659e+03
423   8.00551555068952893635e+03
424   8.00346534535083810624e+03
425   8.00081514001214418386e+03
426   7.99856493467345990211e+03
427   7.99571472933475070022e+03
428   7.99326452399605204846e+03
429   7.99021431865736485634e+03
430   7.98756411331867002446e+03
431   7.98431390797996664332e+03
432   7.98146370264126562688e+03
433   7.97801349730258334603e+03
434   7.97496329196387705451e+03
435   7.97131308662518495112e+03
436   7.96806288128649248392e+03
437   7.96421267594778964849e+03
438   7.96076247060909736319e+03
439   7.95671226527039925713e+03
440   7.95306205993170078727e+03
441   7.94881185459300741059e+03
442   7.94496164925431457959e+03
443   7.94051144391561956581e+03
444   7.93646123857692327874e+03
445   7.93181103323822298989e+03
446   7.92756082789953052270e+03
447   7.92271062256084314868e+03
448   7.91826041722213994944e+03
449   7.91321021188344820985e+03
450   7.90856000654474883049e+03
451   7.90330980120606091077e+03
452   7.89845959586736262281e+03
453   7.89300939052866397105e+03
454   7.88795918518995949853e+03
455   7.88230897985126830463e+03
456   7.87705877451257310895e+03
457   7.87120856917387936846e+03
458   7.86575836383517889772e+03
459   7.85970815849648897711e+03
460   7.85405795315777959331e+03
461   7.84780774781909622106e+03
462   7.84195754248039793310e+03
463   7.83550733714170019084e+03
464   7.82945713180300754175e+03
465   7.82280692646431452886e+03
466   7.81655672112561114773e+03
467   7.80970651578691922623e+03
468   7.80325631044821966498e+03
469   7.79620610510952519689e+03
470   7.78955589977082854602e+03
471   7.78230569443213880731e+03
472   7.77545548909343688138e+03
473   7.76800528375474368659e+03
474   7.76095507841604103305e+03
475   7.75330487307734620117e+03
476   7.74605466773865464347e+03
477   7.73820446239995453652e+03
478   7.73075425706126497971e+03
479   7.72270405172256141668e+03
480   7.71505384638386476581e+03
481   7.70680364104517138912e+03
482   7.69895343570647128217e+03
483   7.69050323036777808738e+03
484   7.68245302502908725728e+03
485   7.67380281969039333489e+03
486   7.66555261435168540629e+03
487   7.65670240901298348035e+03
488   7.64825220367428755708e+03
489   7.63920199833559763647e+03
490   7.63055179299690098560e+03
491   7.62130158765820942790e+03
492   7.61245138231951113994e+03
493   7.60300117698080339323e+03
494   7.59395097164212074858e+03
495   7.58430076630340954580e+03
496   7.57505056096472344507e+03
497   7.56520035562602333812e+03
498   7.55575015028732468636e+03
499   7.54569994494863749424e+03
500   7.53604973960994175286e+03
501   7.52579953427123200527e+03
502   7.51594932893255008821e+03
503   7.50549912359384779847e+03
504   7.49544891825514241646e+03
505   7.48479871291644576559e+03
506   7.47454850757775966485e+03
507   7.46369830223905955791e+03
508   7.45324809690036727261e+03
509   7.44219789156166734756e+03
510   7.43154768622297524416e+03
511   7.42029748088426731556e+03
512   7.40944727554557448457e+03
513   7.39799707020687765180e+03
514   7.38694686486818227422e+03
515   7.37529665952948562335e+03
516   7.36404645419078224222e+03
517   7.35219624885209032072e+03
518   7.34074604351339166897e+03
519   7.32869583817470629583e+03
520   7.31704563283601146395e+03
521   7.30479542749730535434e+03
522   7.29294522215861161385e+03
523   7.28049501681990659563e+03
524   7.26844481148121940350e+03
525   7.25579460614252275263e+03
526   7.24354440080382300948e+03
527   7.23069419546512472152e+03
528   7.21824399012643243623e+03
529   7.20519378478772250674e+03
530   7.19254357944903222233e+03
531   7.17929337411034248362e+03
532   7.16644316877164146717e+03
533   7.15299296343294645339e+03
534   7.13994275809425471380e+03
535   7.12629255275554896798e+03
536   7.11304234741685650079e+03
537   7.09919214207816003182e+03
538   7.08574193673946228955e+03
539   7.07169173140076418349e+03
540   7.05804152606206389464e+03
541   7.04379132072336415149e+03
542   7.02994111538467404898e+03
543   7.01549091004597175925e+03
544   7.00144070470727911015e+03
545   6.98679049936857427383e+03
546   6.97254029402989181108e+03
547   6.95769008869118351868e+03
548   6.94323988335248759540e+03
549   6.92818967801379585580e+03
550   6.91353947267509010999e+03
551   6.89828926733640128077e+03
552   6.88343906199770572130e+03
553   6.86798885665900070308e+03
554   6.85293865132030532550e+03
555   6.83728844598161049362e+03
556   6.82203824064291256946e+03
557   6.80618803530421428150e+03
558   6.79073782996551562974e+03
559   6.77468762462682298064e+03
560   6.75903741928813178674e+03
561   6.74278721394942931511e+03
562   6.72693700861073102715e+03
563   6.71048680327203146589e+03
564   6.69443659793333790731e+03
565   6.67778639259463761846e+03
566   6.66153618725594333227e+03
567   6.64468598191723776836e+03
568   6.62823577657853820710e+03
569   6.61118557123984828650e+03
570   6.59453536590115527360e+03
571   6.57728516056244916399e+03
572   6.56043495522375633300e+03
573   6.54298474988505586225e+03
574   6.52593454454635411821e+03
575   6.50828433920766838128e+03
576   6.49103413386896409065e+03
577   6.47318392853026853118e+03
578   6.45573372319156533194e+03
579   6.43768351785287450184e+03
580   6.42003331251417148451e+03
581   6.40178310717547174136e+03
582   6.38393290183678436733e+03
583   6.36548269649808025861e+03
584   6.34743249115938033356e+03
585   6.32878228582068368269e+03
586   6.31053208048199303448e+03
587   6.29168187514328928955e+03
588   6.27323166980458699982e+03
589   6.25418146446588798426e+03
590   6.23553125912719588086e+03
591   6.21628105378850432317e+03
592   6.19743084844980239723e+03
593   6.17798064311111011193e+03
594   6.15893043777241291536e+03
595   6.13928023243370626005e+03
596   6.12003002709500651690e+03
597   6.10017982175630913844e+03
598   6.08072961641761867213e+03
599   6.06067941107892511354e+03
600   6.04102920574021482025e+03
601   6.02077900040152690053e+03
602   6.00092879506282497459e+03
603   5.98047858972412177536e+03
604   5.96042838438543185475e+03
605   5.93977817904672792793e+03
606   5.91952797370802272781e+03
607   5.89867776836933171580e+03
608   5.87822756303063579253e+03
609   5.85717735769193132001e+03
610   5.83652715235324103560e+03
611   5.81527694701454493043e+03
612   5.79442674167584755196e+03
613   5.77297653633715435717e+03
614   5.75192633099843988020e+03
615   5.73027612565974777681e+03
616   5.70902592032104803366e+03
617   5.68717571498234792671e+03
618   5.66572550964364745596e+03
619   5.64367530430496117333e+03
620   5.62202509896625542751e+03
621   5.59977489362755568436e+03
622   5.57792468828886012489e+03
623   5.55547448295016147313e+03
624   5.53342427761146154808e+03
625   5.51077407227276944468e+03
626   5.48852386693406879203e+03
627   5.46567366159537141357e+03
628   5.44322345625667639979e+03
629   5.42017325091797920322e+03
630   5.39752304557926981943e+03
631   5.37427284024058462819e+03
632   5.35142263490187451680e+03
633   5.32797242956318132201e+03
634   5.30492222422448412544e+03
635   5.28127201888578292710e+03
636   5.25802181354708136496e+03
637   5.23417160820838671498e+03
638   5.21072140286969079170e+03
639   5.18667119753099177615e+03
640   5.16302099219228330185e+03
641   5.13877078685358901566e+03
642   5.11492058151490346063e+03
643   5.09047037617620117089e+03
644   5.06642017083749942685e+03
645   5.04176996549879913800e+03
646   5.01751976016009484738e+03
647   4.99266955482140110689e+03
648   4.96821934948270882160e+03
649   4.94316914414400889655e+03
650   4.91851893880530224124e+03
651   4.89326873346660249808e+03
652   4.86841852812790784810e+03
653   4.84296832278920828685e+03
654   4.81791811745050563331e+03
655   4.79226791211181352992e+03
656   4.76701770677310469182e+03
657   4.74116750143441095133e+03
658   4.71571729609571139008e+03
659   4.68966709075702510745e+03
660   4.66401688541831390467e+03
661   4.63776668007961325202e+03
662   4.61191647474091496406e+03
663   4.58546626940223086422e+03
664   4.55941606406351093028e+03
665   4.53276585872483155981e+03
666   4.50651565338611544576e+03
667   4.47966544804741897678e+03
668   4.45321524270871941553e+03
669   4.42616503737002130947e+03
670   4.39951483203131374466e+03
671   4.37226462669262764393e+03
672   4.34541442135392389901e+03
673   4.31796421601521979028e+03
674   4.29091401067653350765e+03
675   4.26326380533782503335e+03
676   4.23601359999912710919e+03
677   4.20816339466043245920e+03
678   4.18071318932172289351e+03
679   4.15266298398304479633e+03
680   4.12501277864433450304e+03
681   4.09676257330563021242e+03
682   4.06891236796693556244e+03
683   4.04046216262823782017e+03
684   4.01241195728953243815e+03
685   3.98376175195083715153e+03
686   3.95551154661213922736e+03
687   3.92666134127344048466e+03
688   3.89821113593473819492e+03
689   3.86916093059603872462e+03
690   3.84051072525733661678e+03
691   3.81126051991864005686e+03
692   3.78241031457993767617e+03
693   3.75296010924124220764e+03
694   3.72390990390254000886e+03
695   3.69425969856384426748e+03
696   3.66500949322513861262e+03
697   3.63515928788645123859e+03
698   3.60570908254774258239e+03
699   3.57565887720904856906e+03
700   3.54600867187034464223e+03
701   3.51575846653164626332e+03
702   3.48590826119294615637e+03
703   3.45545805585425205209e+03
704   3.42540785051555349128e+03
705   3.39475764517684501698e+03
706   3.36450743983814891180e+03
707   3.33365723449945107859e+03
708   3.30320702916075151734e+03
709   3.27215682382205022805e+03
710   3.24150661848335357718e+03
711   3.21025641314465428877e+03
712   3.17940620780595190809e+03
713   3.14795600246725234683e+03
714   3.11690579712855287653e+03
715   3.08525559178985668041e+03
716   3.05400538645115193503e+03
717   3.02215518111245592081e+03
718   2.99070497577375363107e+03
719   2.95865477043505643451e+03
720   2.92700456509635159819e+03
721   2.89475435975765776675e+03
722   2.86290415441895174808e+03
723   2.83045394908025582481e+03
724   2.79840374374156044723e+03
725   2.76575353840285924889e+03
726   2.73350333306415814150e+03
727   2.70065312772545576081e+03
728   2.66820292238675483532e+03
729   2.63515271704805263653e+03
730   2.60250251170935462142e+03
731   2.56925230637065624251e+03
732   2.53640210103195795455e+03
733   2.50295189569325521006e+03
734   2.46990169035455573976e+03
735   2.43625148501585863414e+03
736   2.40300127967715707200e+03
737   2.36915107433846151253e+03
738   2.33570086899975967754e+03
739   2.30165066366105702400e+03
740   2.26800045832235991838e+03
741   2.23375025298365608251e+03
742   2.19990004764495597556e+03
743   2.16544984230625641430e+03
744   2.13139963696755739875e+03
745   2.09674943162886393111e+03
746   2.06249922629015918574e+03
747   2.02764902095145771455e+03
748   1.99319881561275542481e+03
749   1.95814861027405504501e+03
750   1.92349840493535634778e+03
751   1.88824819959665637725e+03
752   1.85339799425795536081e+03
753   1.81794778891925443531e+03
754   1.78289758358055814824e+03
755   1.74724737824185694990e+03
756   1.71199717290315584250e+03
757   1.67614696756445641768e+03
758   1.64069676222575503743e+03
759   1.60464655688705306602e+03
760   1.56899635154835164030e+03
761   1.53274614620965462564e+03
762   1.49689594087095429131e+03
763   1.46044573553225291107e+03
764   1.42439553019355389551e+03
765   1.38774532485484996869e+03
766   1.35149511951615409089e+03
767   1.31464491417745239232e+03
768   1.27819470883875146683e+03
769   1.24114450350005222390e+03
770   1.20449429816135034343e+03
771   1.16724409282264741705e+03
772   1.13039388748395595030e+03
773   1.09294368214522410199e+03
774   1.05589347680660512196e+03
775   1.01824327146770281161e+03
776   9.80993066129530802755e+02
777   9.43142860789448718606e+02
778   9.05692655454361670309e+02
779   8.67642450106200726623e+02
780   8.29992244792271208098e+02
781   7.91742039388721650539e+02
782   7.53891834219801012296e+02
783   7.15441628436608425545e+02
784   6.77391424261599922829e+02
785   6.38741215876312821820e+02
786   6.00491018513680501201e+02
787   5.61640792293362778764e+02
788   5.23190641623445344521e+02
789   4.84140293160016312868e+02
790   4.45490462526715816693e+02
791   4.06239276196540799901e+02
792   3.67391639126862514786e+02
793   3.27934709972569066849e+02
794   2.88902107811627615774e+02
795   2.49205816755242665295e+02
796   2.10076265391834652974e+02
797   1.69910183844940604558e+02
798   1.31286953155526560977e+02
799   8.90717000771602300802e+01
800   5.50896633081717439495e+01
