%%MatrixMarket vector coordinate real general
99
1   6.32935278056367614470e-14
2   3.83793401173412249205e-14
3   4.43141635025903044466e-14
4   4.45014720227804977764e-14
5   4.54123810379301547723e-14
6   4.62203949997906954111e-14
7   4.70054227174714645393e-14
8   4.77568066767719658672e-14
9   4.84714154578122566742e-14
10   4.91454220543860285620e-14
11   4.97749107083518801786e-14
12   5.03558333808065395036e-14
13   5.08840066915587793727e-14
14   5.13551027770350596840e-14
15   5.17646359629601312187e-14
16   5.21079440854853246692e-14
17   5.23801633705043855646e-14
18   5.25761957073901959426e-14
19   5.26906671377815942143e-14
20   5.27178764408303286503e-14
21   5.26517328737734061093e-14
22   5.24856824759863325915e-14
23   5.22126229405064647275e-14
24   5.18248080010357105398e-14
25   5.13137437092650727138e-14
26   5.06700810656331498006e-14
27   4.98835124479878318280e-14
28   4.89426834663891522197e-14
29   4.78351373828431582209e-14
30   4.65473228688729625974e-14
31   4.50645694735109597868e-14
32   4.33739986854401822075e-14
33   4.14088643306238041280e-14
34   4.01640459482335841055e-14
35   2.07957619793720727855e-14
36   3.13435629869380100311e-13
37  -4.50737604486977239230e-12
38   6.88041772077994651518e-11
39  -9.66827594883073262640e-10
40   1.25349547937666993281e-08
41  -1.48812968461101509496e-07
42   1.60396173892722952602e-06
43  -1.55320364974463036181e-05
44   1.33370405951769628204e-04
45  -9.98590387801217074792e-04
46   6.37498847190847827554e-03
47  -3.36258102871018690894e-02
48   1.39730188688588496948e-01
49  -4.21723156380438390922e-01
50   7.76469835771903871269e-01
51  -4.21723156380438390922e-01
52   1.39730188688588496948e-01
53  -3.36258102871018760283e-02
54   6.37498847190848087763e-03
55  -9.98590387801217508473e-04
56   1.33370405951769655309e-04
57  -1.55320364974463036181e-05
58   1.60396173892722952602e-06
59  -1.48812968461101535965e-07
60   1.25349547937667009824e-08
61  -9.66827594883073469435e-10
62   6.88041772077994780765e-11
63  -4.50737604486977320009e-12
64   3.13435629869380251772e-13
65   2.07957619793720317647e-14
66   4.01640459482335841055e-14
67   4.14088643306238041280e-14
68   4.33739986854401822075e-14
69   4.50645694735109850304e-14
70   4.65473228688730257063e-14
71   4.78351373828430951120e-14
72   4.89426834663891585306e-14
73   4.98835124479878318280e-14
74   5.06700810656331498006e-14
75   5.13137437092651042682e-14
76   5.18248080010355149023e-14
77   5.22126229405065341473e-14
78   5.24856824759863136588e-14
79   5.26517328737734187310e-14
80   5.27178764408302970958e-14
81   5.26906671377815437272e-14
82   5.25761957073901959426e-14
83   5.23801633705043855646e-14
84   5.21079440854853246692e-14
85   5.17646359629601312187e-14
86   5.13551027770350723057e-14
87   5.08840066915587793727e-14
88   5.03558333808065395036e-14
89   4.97749107083518801786e-14
90   4.91454220543860285620e-14
91   4.84714154578122566742e-14
92   4.77568066767719658672e-14
93   4.70054227174714645393e-14
94   4.62203949997906954111e-14
95   4.54123810379301547723e-14
96   4.45014720227805293308e-14
97   4.43141635025902413378e-14
98   3.83793401173412249205e-14
99   6.32935278056367614470e-14
