%%MatrixMarket matrix coordinate  real general
99 99 295
1 1 5.00000000000000000e+01
2 1 5.00000000000000000e-01
1 2 5.00000000000000000e-01
2 2 4.90000000000000000e+01
3 2 5.00000000000000000e-01
2 3 5.00000000000000000e-01
3 3 4.80000000000000000e+01
4 3 5.00000000000000000e-01
3 4 5.00000000000000000e-01
4 4 4.70000000000000000e+01
5 4 5.00000000000000000e-01
4 5 5.00000000000000000e-01
5 5 4.60000000000000000e+01
6 5 5.00000000000000000e-01
5 6 5.00000000000000000e-01
6 6 4.50000000000000000e+01
7 6 5.00000000000000000e-01
6 7 5.00000000000000000e-01
7 7 4.40000000000000000e+01
8 7 5.00000000000000000e-01
7 8 5.00000000000000000e-01
8 8 4.30000000000000000e+01
9 8 5.00000000000000000e-01
8 9 5.00000000000000000e-01
9 9 4.20000000000000000e+01
10 9 5.00000000000000000e-01
9 10 5.00000000000000000e-01
10 10 4.10000000000000000e+01
11 10 5.00000000000000000e-01
10 11 5.00000000000000000e-01
11 11 4.00000000000000000e+01
12 11 5.00000000000000000e-01
11 12 5.00000000000000000e-01
12 12 3.90000000000000000e+01
13 12 5.00000000000000000e-01
12 13 5.00000000000000000e-01
13 13 3.80000000000000000e+01
14 13 5.00000000000000000e-01
13 14 5.00000000000000000e-01
14 14 3.70000000000000000e+01
15 14 5.00000000000000000e-01
14 15 5.00000000000000000e-01
15 15 3.60000000000000000e+01
16 15 5.00000000000000000e-01
15 16 5.00000000000000000e-01
16 16 3.50000000000000000e+01
17 16 5.00000000000000000e-01
16 17 5.00000000000000000e-01
17 17 3.40000000000000000e+01
18 17 5.00000000000000000e-01
17 18 5.00000000000000000e-01
18 18 3.30000000000000000e+01
19 18 5.00000000000000000e-01
18 19 5.00000000000000000e-01
19 19 3.20000000000000000e+01
20 19 5.00000000000000000e-01
19 20 5.00000000000000000e-01
20 20 3.10000000000000000e+01
21 20 5.00000000000000000e-01
20 21 5.00000000000000000e-01
21 21 3.00000000000000000e+01
22 21 5.00000000000000000e-01
21 22 5.00000000000000000e-01
22 22 2.90000000000000000e+01
23 22 5.00000000000000000e-01
22 23 5.00000000000000000e-01
23 23 2.80000000000000000e+01
24 23 5.00000000000000000e-01
23 24 5.00000000000000000e-01
24 24 2.70000000000000000e+01
25 24 5.00000000000000000e-01
24 25 5.00000000000000000e-01
25 25 2.60000000000000000e+01
26 25 5.00000000000000000e-01
25 26 5.00000000000000000e-01
26 26 2.50000000000000000e+01
27 26 5.00000000000000000e-01
26 27 5.00000000000000000e-01
27 27 2.40000000000000000e+01
28 27 5.00000000000000000e-01
27 28 5.00000000000000000e-01
28 28 2.30000000000000000e+01
29 28 5.00000000000000000e-01
28 29 5.00000000000000000e-01
29 29 2.20000000000000000e+01
30 29 5.00000000000000000e-01
29 30 5.00000000000000000e-01
30 30 2.10000000000000000e+01
31 30 5.00000000000000000e-01
30 31 5.00000000000000000e-01
31 31 2.00000000000000000e+01
32 31 5.00000000000000000e-01
31 32 5.00000000000000000e-01
32 32 1.90000000000000000e+01
33 32 5.00000000000000000e-01
32 33 5.00000000000000000e-01
33 33 1.80000000000000000e+01
34 33 5.00000000000000000e-01
33 34 5.00000000000000000e-01
34 34 1.70000000000000000e+01
35 34 5.00000000000000000e-01
34 35 5.00000000000000000e-01
35 35 1.60000000000000000e+01
36 35 5.00000000000000000e-01
35 36 5.00000000000000000e-01
36 36 1.50000000000000000e+01
37 36 5.00000000000000000e-01
36 37 5.00000000000000000e-01
37 37 1.40000000000000000e+01
38 37 5.00000000000000000e-01
37 38 5.00000000000000000e-01
38 38 1.30000000000000000e+01
39 38 5.00000000000000000e-01
38 39 5.00000000000000000e-01
39 39 1.20000000000000000e+01
40 39 5.00000000000000000e-01
39 40 5.00000000000000000e-01
40 40 1.10000000000000000e+01
41 40 5.00000000000000000e-01
40 41 5.00000000000000000e-01
41 41 1.00000000000000000e+01
42 41 5.00000000000000000e-01
41 42 5.00000000000000000e-01
42 42 9.00000000000000000e+00
43 42 5.00000000000000000e-01
42 43 5.00000000000000000e-01
43 43 8.00000000000000000e+00
44 43 5.00000000000000000e-01
43 44 5.00000000000000000e-01
44 44 7.00000000000000000e+00
45 44 5.00000000000000000e-01
44 45 5.00000000000000000e-01
45 45 6.00000000000000000e+00
46 45 5.00000000000000000e-01
45 46 5.00000000000000000e-01
46 46 5.00000000000000000e+00
47 46 5.00000000000000000e-01
46 47 5.00000000000000000e-01
47 47 4.00000000000000000e+00
48 47 5.00000000000000000e-01
47 48 5.00000000000000000e-01
48 48 3.00000000000000000e+00
49 48 5.00000000000000000e-01
48 49 5.00000000000000000e-01
49 49 2.00000000000000000e+00
50 49 5.00000000000000000e-01
49 50 5.00000000000000000e-01
50 50 1.00000000000000000e+00
51 50 5.00000000000000000e-01
50 51 5.00000000000000000e-01
51 51 2.00000000000000000e+00
52 51 5.00000000000000000e-01
51 52 5.00000000000000000e-01
52 52 3.00000000000000000e+00
53 52 5.00000000000000000e-01
52 53 5.00000000000000000e-01
53 53 4.00000000000000000e+00
54 53 5.00000000000000000e-01
53 54 5.00000000000000000e-01
54 54 5.00000000000000000e+00
55 54 5.00000000000000000e-01
54 55 5.00000000000000000e-01
55 55 6.00000000000000000e+00
56 55 5.00000000000000000e-01
55 56 5.00000000000000000e-01
56 56 7.00000000000000000e+00
57 56 5.00000000000000000e-01
56 57 5.00000000000000000e-01
57 57 8.00000000000000000e+00
58 57 5.00000000000000000e-01
57 58 5.00000000000000000e-01
58 58 9.00000000000000000e+00
59 58 5.00000000000000000e-01
58 59 5.00000000000000000e-01
59 59 1.00000000000000000e+01
60 59 5.00000000000000000e-01
59 60 5.00000000000000000e-01
60 60 1.10000000000000000e+01
61 60 5.00000000000000000e-01
60 61 5.00000000000000000e-01
61 61 1.20000000000000000e+01
62 61 5.00000000000000000e-01
61 62 5.00000000000000000e-01
62 62 1.30000000000000000e+01
63 62 5.00000000000000000e-01
62 63 5.00000000000000000e-01
63 63 1.40000000000000000e+01
64 63 5.00000000000000000e-01
63 64 5.00000000000000000e-01
64 64 1.50000000000000000e+01
65 64 5.00000000000000000e-01
64 65 5.00000000000000000e-01
65 65 1.60000000000000000e+01
66 65 5.00000000000000000e-01
65 66 5.00000000000000000e-01
66 66 1.70000000000000000e+01
67 66 5.00000000000000000e-01
66 67 5.00000000000000000e-01
67 67 1.80000000000000000e+01
68 67 5.00000000000000000e-01
67 68 5.00000000000000000e-01
68 68 1.90000000000000000e+01
69 68 5.00000000000000000e-01
68 69 5.00000000000000000e-01
69 69 2.00000000000000000e+01
70 69 5.00000000000000000e-01
69 70 5.00000000000000000e-01
70 70 2.10000000000000000e+01
71 70 5.00000000000000000e-01
70 71 5.00000000000000000e-01
71 71 2.20000000000000000e+01
72 71 5.00000000000000000e-01
71 72 5.00000000000000000e-01
72 72 2.30000000000000000e+01
73 72 5.00000000000000000e-01
72 73 5.00000000000000000e-01
73 73 2.40000000000000000e+01
74 73 5.00000000000000000e-01
73 74 5.00000000000000000e-01
74 74 2.50000000000000000e+01
75 74 5.00000000000000000e-01
74 75 5.00000000000000000e-01
75 75 2.60000000000000000e+01
76 75 5.00000000000000000e-01
75 76 5.00000000000000000e-01
76 76 2.70000000000000000e+01
77 76 5.00000000000000000e-01
76 77 5.00000000000000000e-01
77 77 2.80000000000000000e+01
78 77 5.00000000000000000e-01
77 78 5.00000000000000000e-01
78 78 2.90000000000000000e+01
79 78 5.00000000000000000e-01
78 79 5.00000000000000000e-01
79 79 3.00000000000000000e+01
80 79 5.00000000000000000e-01
79 80 5.00000000000000000e-01
80 80 3.10000000000000000e+01
81 80 5.00000000000000000e-01
80 81 5.00000000000000000e-01
81 81 3.20000000000000000e+01
82 81 5.00000000000000000e-01
81 82 5.00000000000000000e-01
82 82 3.30000000000000000e+01
83 82 5.00000000000000000e-01
82 83 5.00000000000000000e-01
83 83 3.40000000000000000e+01
84 83 5.00000000000000000e-01
83 84 5.00000000000000000e-01
84 84 3.50000000000000000e+01
85 84 5.00000000000000000e-01
84 85 5.00000000000000000e-01
85 85 3.60000000000000000e+01
86 85 5.00000000000000000e-01
85 86 5.00000000000000000e-01
86 86 3.70000000000000000e+01
87 86 5.00000000000000000e-01
86 87 5.00000000000000000e-01
87 87 3.80000000000000000e+01
88 87 5.00000000000000000e-01
87 88 5.00000000000000000e-01
88 88 3.90000000000000000e+01
89 88 5.00000000000000000e-01
88 89 5.00000000000000000e-01
89 89 4.00000000000000000e+01
90 89 5.00000000000000000e-01
89 90 5.00000000000000000e-01
90 90 4.10000000000000000e+01
91 90 5.00000000000000000e-01
90 91 5.00000000000000000e-01
91 91 4.20000000000000000e+01
92 91 5.00000000000000000e-01
91 92 5.00000000000000000e-01
92 92 4.30000000000000000e+01
93 92 5.00000000000000000e-01
92 93 5.00000000000000000e-01
93 93 4.40000000000000000e+01
94 93 5.00000000000000000e-01
93 94 5.00000000000000000e-01
94 94 4.50000000000000000e+01
95 94 5.00000000000000000e-01
94 95 5.00000000000000000e-01
95 95 4.60000000000000000e+01
96 95 5.00000000000000000e-01
95 96 5.00000000000000000e-01
96 96 4.70000000000000000e+01
97 96 5.00000000000000000e-01
96 97 5.00000000000000000e-01
97 97 4.80000000000000000e+01
98 97 5.00000000000000000e-01
97 98 5.00000000000000000e-01
98 98 4.90000000000000000e+01
99 98 5.00000000000000000e-01
98 99 5.00000000000000000e-01
99 99 5.00000000000000000e+01
