%%MatrixMarket matrix coordinate real general
900 900 7200
1 8  -4.72541196977931381856e-03
1 7   2.81085654494767816017e-03
1 5   2.76328797510494092449e-03
1 6  -1.36563476864363975412e-11
1 2  -1.14172636816224442290e-03
1 1   6.60324475773122073451e-04
1 3  -1.46594205041481969766e-03
1 4  -2.61426414184944867769e-03
2 7   5.31528527387272343302e-03
2 8  -9.20875314489388169248e-03
2 6  -1.12548930976694559910e-04
2 5   5.38567197128191673533e-03
2 2  -2.23173705642176886318e-03
2 1   1.31387312886205244629e-03
2 3  -2.91186828342184216706e-03
2 4  -5.12150000258500270878e-03
3 6  -4.38717598731072080335e-04
3 7   7.23695456156495369598e-03
3 8  -1.32223218907841864184e-02
3 4  -7.41906105150220551020e-03
3 5   7.73801702804548414971e-03
3 1   1.95393966569010202328e-03
3 2  -3.22048466334833071237e-03
3 3  -4.31817187717384223106e-03
4 6  -1.05768538523531548459e-03
4 7   8.35688321902232182647e-03
4 8  -1.65661576545084558709e-02
4 5   9.71365860080465777504e-03
4 2  -4.06266905122069227341e-03
4 1   2.57395613744029099282e-03
4 3  -5.66605146842665517715e-03
4 4  -9.41288486932050430522e-03
5 6  -2.01835825788947544404e-03
5 7   8.53527485121357253062e-03
5 8  -1.90794967468821755063e-02
5 4  -1.10213440746909467627e-02
5 5   1.12370665184969263650e-02
5 1   3.16756033609530592010e-03
5 2  -4.71914140583514895438e-03
5 3  -6.93788302044209045233e-03
6 8  -2.06495431123703138132e-02
6 6  -3.33379864954344183256e-03
6 7   7.72585803998265732012e-03
6 4  -1.21785881587710212437e-02
6 5   1.22696883176358732814e-02
6 1   3.72866107930102351486e-03
6 2  -5.15855491086192677330e-03
6 3  -8.11755595400698477804e-03
7 5   1.28124471209652267961e-02
7 7   5.98135490828449658401e-03
7 8  -2.12169942241846494480e-02
7 6  -4.97898914207835479456e-03
7 2  -5.35869396624564370279e-03
7 1   4.25150071414243796442e-03
7 3  -9.19076373507836559551e-03
7 4  -1.28372394128015345632e-02
8 8  -2.07780125896501327576e-02
8 7   3.44952635046737697555e-03
8 6  -6.89214573892603897531e-03
8 2  -5.30742706154476665686e-03
8 5   1.29046756049994350984e-02
8 1   4.73071419845215532934e-03
8 3  -1.01452408085709044894e-02
8 4  -1.29703325770653271620e-02
9 7   3.60120598512667393007e-04
9 8  -1.93826040090296081164e-02
9 6  -8.97947034132747824720e-03
9 5   1.26195939046486616669e-02
9 2  -5.00324384849167632522e-03
9 1   5.16138415340169735834e-03
9 3  -1.09709397571529903431e-02
9 4  -1.25724188017891629759e-02
10 7  -2.99609830689098830675e-03
10 8  -1.71296321406696656908e-02
10 6  -1.11229159075505647930e-02
10 5   1.20567556116742153477e-02
10 2  -4.45535401032069039440e-03
10 1   5.53909132246590153043e-03
10 3  -1.16601447670111411231e-02
10 4  -1.16597887236930767424e-02
11 7  -6.29432274867746440611e-03
11 8  -1.41589429721070136914e-02
11 4  -1.02698055254081942883e-02
11 6  -1.31902606636164244913e-02
11 5   1.13321633316981942169e-02
11 1   5.85995991897365117035e-03
11 2  -3.68334350011875755193e-03
11 3  -1.22075198119048090178e-02
12 8  -1.06412727356178186261e-02
12 7  -9.20618813420541644288e-03
12 1   6.12069739692080744958e-03
12 6  -1.50465750731749881713e-02
12 5   1.05669681448340921359e-02
12 2  -2.71640188029340264031e-03
12 3  -1.26100923298428403696e-02
12 4  -8.45937528239425196031e-03
13 5   9.87579625094369209504e-03
13 7  -1.14309491444949361261e-02
13 8  -6.76675296628481345862e-03
13 6  -1.65660365777434669121e-02
13 2  -1.59215209644203653863e-03
13 1   6.31862823695206795444e-03
13 3  -1.28671754698143261247e-02
13 4  -6.30261722152105664796e-03
14 8  -2.73289651037056380289e-03
14 7  -1.27244427787363469790e-02
14 6  -1.76430142003983179977e-02
14 1   6.45172140080666443873e-03
14 5   9.35577925562912186830e-03
14 2  -3.55130340352844753923e-04
14 3  -1.29802341384592807155e-02
14 4  -3.88782927120854843867e-03
15 2   9.45021970049453839680e-04
15 7  -1.29231252353809011185e-02
15 8   1.26705568132526877681e-03
15 6  -1.82014109960634898333e-02
15 5   9.07729893490935753342e-03
15 1   6.51861117252041950137e-03
15 3  -1.29527019938025320794e-02
15 4  -1.31387313387172611177e-03
16 7  -1.19609107122698021114e-02
16 8   5.05462272025807447112e-03
16 6  -1.82014109972309032215e-02
16 5   9.07729893480502258996e-03
16 2   2.25558023022389775650e-03
16 1   6.51861117252034924507e-03
16 3  -1.27897581408554800869e-02
16 4   1.31387312380310374363e-03
17 7  -9.87719238499818602550e-03
17 8   8.47474116688080696125e-03
17 6  -1.76430142038543139038e-02
17 5   9.35577925531883188015e-03
17 2   3.52289003101422925485e-03
17 1   6.45172140080648576221e-03
17 3  -1.24980735201025375952e-02
17 4   3.88782926127511328784e-03
18 7  -6.81522964568887380105e-03
18 8   1.14021133460793771403e-02
18 4   6.30261721185211998969e-03
18 6  -1.65660365833454580053e-02
18 5   9.87579625043949818619e-03
18 1   6.31862823695199249396e-03
18 2   4.69456377646584096380e-03
18 3  -1.20855377984148640996e-02
19 8   1.37449866904887016417e-02
19 7  -3.01096762879535153473e-03
19 1   6.12069739692075193843e-03
19 6  -1.50465750806926361338e-02
19 5   1.05669681441574788566e-02
19 2   5.72163060766114547895e-03
19 3  -1.15609779435074076781e-02
19 4   8.45937527311235726302e-03
20 5   1.13321633308764036646e-02
20 7   1.22676570810068322724e-03
20 8   1.54463332418207366370e-02
20 6  -1.31902606727416389643e-02
20 2   6.56055156139932066361e-03
20 1   5.85995991897352366817e-03
20 3  -1.09338795768776971679e-02
20 4   1.02698055166221807050e-02
21 8   1.64826173746477518123e-02
21 7   5.54294385630934357406e-03
21 6  -1.11229159179096603188e-02
21 1   5.53909132246584515191e-03
21 5   1.20567556107426723105e-02
21 2   7.17501735733519063060e-03
21 3  -1.02141216641593642750e-02
21 4   1.16597887154992682635e-02
22 8   1.68605293634445582707e-02
22 6  -8.97947035249845731952e-03
22 7   9.56752707881165440074e-03
22 5   1.26195939036458856797e-02
22 1   5.16138415340157159089e-03
22 2   7.53745505499906019026e-03
22 3  -9.41173414220802632968e-03
22 4   1.25724187942681201596e-02
23 8   1.66122065014433495378e-02
23 6  -6.89214575045145154408e-03
23 7   1.29483448448175445661e-02
23 5   1.29046756039659371584e-02
23 2   7.63018169120246309012e-03
23 1   4.73071419845221951411e-03
23 3  -8.53668674260756044081e-03
23 4   1.29703325702822166304e-02
24 4   1.28372394068073866769e-02
24 6  -4.97898915348494140731e-03
24 7   1.53827026714798368451e-02
24 8   1.57895506228007097282e-02
24 5   1.28124471199416254535e-02
24 1   4.25150071414234255462e-03
24 2   7.44615741331712804180e-03
24 3  -7.59871561055484954356e-03
25 8   1.44582751963114718857e-02
25 6  -3.33379866036457531836e-03
25 7   1.66448427899371156902e-02
25 5   1.22696883166636735302e-02
25 2   6.98930697553014693146e-03
25 1   3.72866107930110504687e-03
25 3  -6.60719240819858041891e-03
25 4   1.21785881536002685288e-02
26 4   1.10213440703668397180e-02
26 6  -2.01835826768375541443e-03
26 7   1.66067523042185173632e-02
26 8   1.26922768167872720979e-02
26 5   1.12370665176162384813e-02
26 1   3.16756033609528466974e-03
26 2   6.27439609444384663317e-03
26 3  -5.57103851437346607456e-03
27 8   1.05688310212026966017e-02
27 6  -1.05768539360154029821e-03
27 7   1.52504061396424167585e-02
27 4   9.41288486585676459351e-03
27 5   9.71365860005399608945e-03
27 1   2.57395613744034563661e-03
27 2   5.32646734599819850209e-03
27 3  -4.49868477677490587185e-03
28 5   7.73801702745337098566e-03
28 7   1.26703013113077470747e-02
28 8   8.16497227211131736124e-03
28 6  -4.38717605325998725053e-04
28 2   4.17985828353169362043e-03
28 1   1.95393966569009681911e-03
28 3  -3.39807512945384908309e-03
28 4   7.41906104890555952169e-03
29 8   5.55524816902333486851e-03
29 7   9.06601399825607279226e-03
29 6  -1.12548935529753498896e-04
29 2   2.87684153037131391459e-03
29 5   5.38567197087248383108e-03
29 1   1.31387312886204529055e-03
29 3  -2.27671034859179381715e-03
29 4   5.12150000085604198419e-03
30 7   4.72541196918202423966e-03
30 8   2.81085654649315978479e-03
30 6  -1.59812259195367937799e-11
30 5   2.76328797489639116716e-03
30 2   1.46594205096787643001e-03
30 1   6.60324475773153732154e-04
30 3  -1.14172636895308035263e-03
30 4   2.61426414098445353620e-03
31 7   5.55524816613544355354e-03
31 8  -9.06601399946013915276e-03
31 6   1.12548877699922636204e-04
31 5   5.38567197255537810641e-03
31 2  -2.27671034704542227939e-03
31 1   1.31387312886206805880e-03
31 3  -2.87684152929186878755e-03
31 4  -5.12150000256148419525e-03
32 7   1.05081957152086298557e-02
32 8  -1.76656307495617545533e-02
32 4  -1.00333251933021044139e-02
32 6  -5.19349563093941578955e-11
32 5   1.04921367568046545321e-02
32 1   2.61426414146382918996e-03
32 2  -4.45046897468052028018e-03
32 3  -5.71426726749796505544e-03
33 8  -2.53602823239012856171e-02
33 7   1.43155837482282135426e-02
33 1   3.88782926630165497073e-03
33 6  -5.39894411973509415724e-04
33 5   1.50635925843980739841e-02
33 2  -6.42263899463267444456e-03
33 3  -8.47367100598746952889e-03
33 4  -1.45343848718342428389e-02
34 5   1.88889243617469497483e-02
34 7   1.65466659253646238004e-02
34 8  -3.17651189222887819774e-02
34 6  -1.66579992461260016808e-03
34 2  -8.10303550532328296929e-03
34 1   5.12150000178380679361e-03
34 3  -1.11180408078295229340e-02
34 4  -1.84404051260984129523e-02
35 8  -3.65711695654597698790e-02
35 7   1.69260548877336255980e-02
35 6  -3.47611108882388362279e-03
35 1   6.30261721673834596213e-03
35 5   2.18189311940541440238e-02
35 2  -9.41371468085410410820e-03
35 3  -1.36126948451178991090e-02
35 4  -2.15914730279786332146e-02
36 8  -3.95622799529652333095e-02
36 6  -5.99785694271789265875e-03
36 7   1.53618776753887097131e-02
36 5   2.37779419654363041725e-02
36 1   7.41906105023262731762e-03
36 2  -1.02922586732620939542e-02
36 3  -1.59259462571429318001e-02
36 4  -2.38585834873603040707e-02
37 8  -4.06257406942201887423e-02
37 6  -9.18224072489716089396e-03
37 7   1.19565391025055652030e-02
37 5   2.47687748111576067078e-02
37 2  -1.06944208804917607197e-02
37 1   8.45937527774556427551e-03
37 3  -1.80296775576022083598e-02
37 4  -2.51489207356869193255e-02
38 4  -2.54096582144275329185e-02
38 6  -1.29072428734370598519e-02
38 7   6.99901019420211701477e-03
38 8  -3.97560076330038120185e-02
38 5   2.48706059215430715092e-02
38 1   9.41288486753464985479e-03
38 2  -1.05960223602799188253e-02
38 3  -1.98998084919955707528e-02
39 8  -3.70514439549634519433e-02
39 6  -1.69870678281232485862e-02
39 7   9.39280174230857300109e-04
39 5   2.42299623706254893540e-02
39 2  -9.99402087881041435724e-03
39 1   1.02698055209054991965e-02
39 3  -2.15166452024389623365e-02
39 4  -2.46301213005827926428e-02
40 4  -2.28422243270125432946e-02
40 6  -2.11875860673986886329e-02
40 7  -5.65272386792817563284e-03
40 8  -3.27045370941311738799e-02
40 5   2.30456830268596403466e-02
40 1   1.10213440723591123843e-02
40 2  -8.90670801487950143660e-03
40 3  -2.28651029382647037747e-02
41 8  -2.69865189169134558900e-02
41 6  -2.52463714255031154710e-02
41 7  -1.21399895970311071797e-02
41 4  -2.01191640058935340696e-02
41 5   2.15492433656430323885e-02
41 1   1.16597887193684718321e-02
41 2  -7.37302550558857801299e-03
41 3  -2.39347991827105338603e-02
42 5   1.99822635706732865124e-02
42 7  -1.78781729523484096689e-02
42 8  -2.02277066872343508352e-02
42 6  -2.88955105868782397005e-02
42 2  -5.45102815336120493511e-03
42 1   1.21785881559043317190e-02
42 3  -2.47200187645995640706e-02
42 4  -1.65724227467263438007e-02
43 7  -2.22767176080338261124e-02
43 6  -3.18851055727663035277e-02
43 5   1.85732758502339043161e-02
43 8  -1.27951543123368764038e-02
43 1   1.25724187977040834790e-02
43 2  -3.21555563624455371941e-03
43 3  -2.52195571030322356065e-02
43 4  -1.23472045533955850777e-02
44 8  -5.06933832026233970741e-03
44 6  -3.40053245260965933405e-02
44 7  -2.48556517368694086800e-02
44 5   1.75158928938222921423e-02
44 2  -7.55208039349226293961e-04
44 1   1.28372394094475542753e-02
44 3  -2.54364520121732502755e-02
44 4  -7.61649035517678908713e-03
45 4  -2.57395614718631832868e-03
45 6  -3.51049871936048446530e-02
45 7  -2.52927449187777889095e-02
45 8   2.57840687523162425537e-03
45 5   1.69503888204599675871e-02
45 1   1.29703325733010205872e-02
45 2   1.83125147555930666357e-03
45 3  -2.53776183041341391045e-02
46 8   9.80613967138168132753e-03
46 6  -3.51049871958467249455e-02
46 7  -2.34565716196421004958e-02
46 5   1.69503888202476721281e-02
46 2   4.43891989469334148632e-03
46 1   1.29703325733010743637e-02
46 3  -2.50534026226563941164e-02
46 4   2.57395612763035644410e-03
47 4   7.61649033588287019403e-03
47 6  -3.40053245327327016700e-02
47 7  -1.94223049900007424529e-02
47 8   1.63179558383881907757e-02
47 5   1.75158928931911893334e-02
47 1   1.28372394094475976434e-02
47 2   6.96103896658531798303e-03
47 3  -2.44770783958340350239e-02
48 8   2.18761028733412063452e-02
48 6  -3.18851055835236082969e-02
48 7  -1.34686392674460350682e-02
48 4   1.23472045346176371311e-02
48 5   1.85732758492092829561e-02
48 1   1.25724187977042083791e-02
48 2   9.29336589744720296957e-03
48 3  -2.36643024204068741501e-02
49 5   1.99822635692962179144e-02
49 7  -6.05596677992958562498e-03
49 8   2.63080681830080813366e-02
49 6  -2.88955106013156978739e-02
49 2   1.13384511907627574118e-02
49 1   1.21785881559044843747e-02
49 3  -2.26325553251318367654e-02
49 4   1.65724227287046554924e-02
50 8   2.95085935474727716066e-02
50 7   2.21234189779781747348e-03
50 6  -2.52463714430291308322e-02
50 4   2.01191639888395473745e-02
50 5   2.15492433639741173823e-02
50 1   1.16597887193684354029e-02
50 2   1.30096483919393841183e-02
50 3  -2.14005879848805612153e-02
51 8   3.14369964226906967175e-02
51 7   1.06421468119127973079e-02
51 5   2.30456830249674629596e-02
51 6  -2.11875860872949607627e-02
51 2   1.42346913718248580666e-02
51 1   1.10213440723592251413e-02
51 3  -1.99878948862671247666e-02
51 4   2.28422243111160161444e-02
52 7   1.85095761191475249863e-02
52 8   3.21105486961960617798e-02
52 6  -1.69870678495766362637e-02
52 5   2.42299623685876507062e-02
52 2   1.49586923871794699042e-02
52 1   1.02698055209055269521e-02
52 3  -1.84142335319804617555e-02
52 4   2.46301212859974215375e-02
53 7   2.51254014239461337388e-02
53 8   3.15949440474013326652e-02
53 4   2.54096582012794912353e-02
53 6  -1.29072428955700532066e-02
53 5   2.48706059194411591151e-02
53 1   9.41288486753466199786e-03
53 2   1.51464377720663383869e-02
53 3  -1.66992063013833257068e-02
54 8   2.99930536703057644410e-02
54 7   2.98969290304058402108e-02
54 1   8.45937527774548621295e-03
54 6  -9.18224074680327843889e-03
54 5   2.47687748090774859100e-02
54 2   1.47838867757818185483e-02
54 3  -1.48619178765753475607e-02
54 4   2.51489207240716688974e-02
55 5   2.37779419634626953961e-02
55 7   3.23817846297927425248e-02
55 8   2.74332153568919226427e-02
55 6  -5.99785696350191473158e-03
55 2   1.38788115979173870551e-02
55 1   7.41906105023261257247e-03
55 3  -1.29207175392377308226e-02
55 4   2.38585834773451417601e-02
56 8   2.40582232397888243214e-02
56 7   3.23286818779548804081e-02
56 6  -3.47611110763348376759e-03
56 1   6.30261721673835810520e-03
56 5   2.18189311922669416932e-02
56 2   1.24605517483483176078e-02
56 3  -1.08930315071435988850e-02
56 4   2.15914730196071560919e-02
57 2   1.05788920441737439859e-02
57 7   2.97014275923904516596e-02
57 8   2.00159969128087047996e-02
57 6  -1.66579994067907253934e-03
57 5   1.88889243602207053396e-02
57 1   5.12150000178374868037e-03
57 3  -8.79528618639107209742e-03
57 4   1.84404051193957987942e-02
58 7   2.46839226034589291625e-02
58 8   1.54526315742431787081e-02
58 6  -5.39894424637419592314e-04
58 5   1.50635925831952375425e-02
58 2   8.30210936624943551809e-03
58 1   3.88782926630167535373e-03
58 3  -6.64291894819665339894e-03
58 4   1.45343848668087957665e-02
59 7   1.76656307473719853540e-02
59 8   1.05081957208625655087e-02
59 6  -6.06779234594863196947e-11
59 5   1.04921367559740238290e-02
59 2   5.71426726960805493605e-03
59 1   2.61426414146385781290e-03
59 3  -4.45046897770393599936e-03
59 4   1.00333251899553128200e-02
60 7   9.20875314380870634012e-03
60 8   5.31528527690196435362e-03
60 4   5.12150000088847524166e-03
60 6   1.12548873236731250178e-04
60 5   5.38567197213074468770e-03
60 1   1.31387312886212183523e-03
60 2   2.91186828450306234989e-03
60 3  -2.23173705796762518808e-03
61 8  -1.26703013131300706168e-02
61 7   8.16497226825246488757e-03
61 1   1.95393966569009465070e-03
61 6   4.38717522075838541572e-04
61 5   7.73801703300782198203e-03
61 2  -3.39807512721963496730e-03
61 3  -4.17985828197573166393e-03
61 4  -7.41906105140616167759e-03
62 5   1.50635925905039293887e-02
62 7   1.54526315667055189756e-02
62 8  -2.46839226067754186067e-02
62 6   5.39894262646644306457e-04
62 2  -6.64291894382965965316e-03
62 1   3.88782926630174517635e-03
62 3  -8.30210936320842363134e-03
62 4  -1.45343848717145018162e-02
63 8  -3.54237219843373599137e-02
63 7   2.10713904787860097090e-02
63 6  -1.07186191777817884381e-10
63 1   5.78182447755612102802e-03
63 5   2.15990642323889703302e-02
63 2  -9.58771827290005526634e-03
63 3  -1.23103396536890109109e-02
63 4  -2.10546692677585668696e-02
64 8  -4.43488544957277852632e-02
64 6  -1.41962580481939330129e-03
64 7   2.43930345927169632547e-02
64 5   2.70331689089387747216e-02
64 1   7.61649034559740319150e-03
64 2  -1.20982319596044610860e-02
64 3  -1.61504858710885025597e-02
64 4  -2.67129730303100401678e-02
65 8  -5.10261925996107271186e-02
65 6  -3.86792554794606431232e-03
65 7   2.50149634967069128821e-02
65 5   3.11466353525480799114e-02
65 2  -1.40584271026153364431e-02
65 1   9.37300071591614172850e-03
65 3  -1.97719192987453606936e-02
65 4  -3.12776445385511137065e-02
66 4  -3.45618056046433225204e-02
66 6  -7.38759882050320920710e-03
66 7   2.28011273281323624540e-02
66 8  -5.51542708959513322542e-02
66 5   3.38294314780357985306e-02
66 1   1.10333314151744923959e-02
66 2  -1.53753654399772978628e-02
66 3  -2.31284248011268261935e-02
67 8  -5.65782050144727002849e-02
67 6  -1.19084429511639357940e-02
67 7   1.78977399685866997436e-02
67 5   3.50881142278307509019e-02
67 2  -1.59831384448493631079e-02
67 1   1.25804452036116787284e-02
67 3  -2.61790457389141466293e-02
67 4  -3.64310022887025311555e-02
68 4  -3.68087094588953819829e-02
68 6  -1.72511999119173489725e-02
68 7   1.07221952263706846870e-02
68 8  -5.52947375245646174924e-02
68 5   3.50426358646491672988e-02
68 1   1.39984666001814299363e-02
68 2  -1.58456886918929944208e-02
68 3  -2.88887709378291106244e-02
69 8  -5.14473230726757921327e-02
69 6  -2.31415826031270907559e-02
69 7   1.92610735740246312962e-03
69 4  -3.56794637393164151828e-02
69 5   3.39129262437185205470e-02
69 1   1.52728447864687779528e-02
69 2  -1.49584007244284548921e-02
69 3  -3.12290457433227891526e-02
70 5   3.19965065450728419760e-02
70 7  -7.66418832233458063169e-03
70 8  -4.53119169926615231181e-02
70 6  -2.92332188998949971115e-02
70 2  -1.33483951153849089710e-02
70 1   1.63905029177778931160e-02
70 3  -3.31780957026026335210e-02
70 4  -3.30894965824299960855e-02
71 7  -1.71242283177492279900e-02
71 6  -3.51374317160774232716e-02
71 5   2.96392104860623492590e-02
71 8  -3.72748140099860778007e-02
71 1   1.73399723092550576975e-02
71 2  -1.10735126046496504260e-02
71 3  -3.47210582968378242419e-02
71 4  -2.91448415479581904308e-02
72 8  -2.78044407561377909799e-02
72 6  -4.04571440312096117231e-02
72 7  -2.55180493567157724855e-02
72 5   2.72017189250479025919e-02
72 2  -8.22002893309710554182e-03
72 1   1.81115101201113730400e-02
72 3  -3.58499251261332682605e-02
72 4  -2.40069932765036263278e-02
73 4  -1.78862958799817332867e-02
73 6  -4.48218169670661081838e-02
73 7  -3.19868314926373131790e-02
73 8  -1.74193935726889015392e-02
73 5   2.50249952583863691236e-02
73 1   1.86971993283552434528e-02
73 2  -4.89919307820275984344e-03
73 3  -3.65633037512400199676e-02
74 8  -6.65520277778470972091e-03
74 6  -4.79202315531101763479e-02
74 7  -3.58313109961747519594e-02
74 5   2.33978071391378918131e-02
74 2  -1.24272989414630163039e-03
74 1   1.90910299701509134085e-02
74 3  -3.68660147504052057577e-02
74 4  -1.10333314289596615826e-02
75 4  -3.72866109325525147897e-03
75 6  -4.95281197495162778255e-02
75 7  -3.65802549545173952272e-02
75 8   3.96771487436008412492e-03
75 5   2.25293258346813025927e-02
75 1   1.92889608101788970207e-02
75 2   2.60250930796750504226e-03
75 3  -3.67685452075981605846e-02
76 8   1.39726750265130178486e-02
76 6  -4.95281197526555791444e-02
76 7  -3.40385394251556602785e-02
76 4   3.72866106532480142549e-03
76 5   2.25293258343540851729e-02
76 1   1.92889608101789594707e-02
76 2   6.48052967934902891811e-03
76 3  -3.62863845891912284447e-02
77 5   2.33978071381667346307e-02
77 7  -2.83102225403988848329e-02
77 8   2.29500734346614471137e-02
77 6  -4.79202315623999189342e-02
77 2   1.02325646103457595926e-02
77 1   1.90910299701509064696e-02
77 3  -3.54392726075548683551e-02
77 4   1.10333314014081432242e-02
78 8   3.05741552138599562150e-02
78 7  -1.97942843552293204490e-02
78 6  -4.48218169821249096119e-02
78 4   1.78862958531764010273e-02
78 5   2.50249952568107891793e-02
78 1   1.86971993283552954945e-02
78 2   1.37035756540962519456e-02
78 3  -3.42503910749114570677e-02
79 8   3.66125190788145690735e-02
79 7  -9.15320784962873022772e-03
79 5   2.72017189229331948774e-02
79 6  -4.04571440514202851357e-02
79 2   1.67486144893767216479e-02
79 1   1.81115101201114216123e-02
79 3  -3.27455328330543346538e-02
79 4   2.40069932507871661165e-02
80 7   2.74292902542167199922e-03
80 8   4.09283189697784918759e-02
80 6  -3.51374317406136574271e-02
80 5   2.96392104834969152827e-02
80 2   1.92387863125914465590e-02
80 1   1.73399723092550472892e-02
80 3  -3.09522805722381930127e-02
80 4   2.91448415236368746362e-02
81 7   1.48919211014830916995e-02
81 8   4.34757436799578442232e-02
81 4   3.30894965597710033478e-02
81 6  -2.92332189277518285364e-02
81 5   3.19965065421621286390e-02
81 1   1.63905029177780041383e-02
81 2   2.10665702174077859588e-02
81 3  -2.88992267493386190136e-02
82 8   4.42898880333331135262e-02
82 7   2.62477190922167577525e-02
82 1   1.52728447864688178515e-02
82 6  -2.31415826331648234737e-02
82 5   3.39129262405828552085e-02
82 2   2.21502782996043229291e-02
82 3  -2.66152629590872789878e-02
82 4   3.56794637185427476744e-02
83 5   3.50426358614169403127e-02
83 7   3.58135796303272330166e-02
83 8   4.34725313438634117236e-02
83 6  -1.72511999429054083133e-02
83 2   2.24374703440509935815e-02
83 1   1.39984666001814802433e-02
83 3  -2.41289631319067318649e-02
83 4   3.68087094401823855527e-02
84 8   4.11755780243149988040e-02
84 7   4.27316528161250999696e-02
84 6  -1.19084429818349761543e-02
84 1   1.25804452036116631158e-02
84 5   3.50881142246317889732e-02
84 2   2.19071835739941163379e-02
84 3  -2.14680800021338595573e-02
84 4   3.64310022721849036120e-02
85 8   3.75839749497845140858e-02
85 6  -7.38759884960200462894e-03
85 7   4.63608653092683967167e-02
85 5   3.38294314749992067193e-02
85 1   1.10333314151744524972e-02
85 2   2.05708853263902244346e-02
85 3  -1.86591686242657886496e-02
85 4   3.45618055904133164580e-02
86 8   3.28998013713919512657e-02
86 6  -3.86792557428009952519e-03
86 7   4.63359881700162318241e-02
86 5   3.11466353497985605492e-02
86 2   1.84721086813957463546e-02
86 1   9.37300071591625795497e-03
86 3  -1.57273445547988048598e-02
86 4   3.12776445266658986721e-02
87 4   2.67129730208009903702e-02
87 6  -1.41962582731094489122e-03
87 7   4.26024607025156168416e-02
87 8   2.73289475458248151685e-02
87 5   2.70331689065910103775e-02
87 1   7.61649034559741967138e-03
87 2   1.56847848848778899378e-02
87 3  -1.26961779252911851484e-02
88 8   2.10713904896685892687e-02
88 6  -1.24915167628545727264e-10
88 7   3.54237219801236749572e-02
88 5   2.15990642305390612155e-02
88 2   1.23103396580746503319e-02
88 1   5.78182447755608720091e-03
88 3  -9.58771827920352863461e-03
88 4   2.10546692606330791697e-02
89 4   1.45343848669710045546e-02
89 6   5.39894250407591870002e-04
89 7   2.53602823211262311254e-02
89 8   1.43155837564171717347e-02
89 5   1.50635925892275614885e-02
89 1   3.88782926630166234330e-03
89 2   8.47367100903084410901e-03
89 3  -6.42263899899848857838e-03
90 8   7.23695456595857111032e-03
90 6   4.38717515828101838581e-04
90 7   1.32223218894104189991e-02
90 4   7.41906104903653808302e-03
90 5   7.73801703235545926957e-03
90 1   1.95393966569009942119e-03
90 2   4.31817187873266301185e-03
90 3  -3.22048466558085954431e-03
91 5   9.71365861276750341968e-03
91 7   1.05688310168628677582e-02
91 8  -1.52504061420847946556e-02
91 6   1.05768528879887483730e-03
91 2  -4.49868477395116116158e-03
91 1   2.57395613744028318656e-03
91 3  -5.32646734403326507779e-03
91 4  -9.41288486908682144050e-03
92 8  -2.97014275968392992000e-02
92 7   2.00159969043587002147e-02
92 6   1.66579973697926876988e-03
92 4  -1.84404051257293817578e-02
92 5   1.88889243805888534800e-02
92 1   5.12150000178379898735e-03
92 2  -8.79528618087296182315e-03
92 3  -1.05788920403372972007e-02
93 8  -4.26024607081828474153e-02
93 7   2.73289475336890193280e-02
93 5   2.70331689249974360667e-02
93 6   1.41962553601288976948e-03
93 2  -1.26961779173297116541e-02
93 1   7.61649034559740839567e-03
93 3  -1.56847848793506688958e-02
93 4  -2.67129730299945876426e-02
94 7   3.17030993578980291314e-02
94 8  -5.32969942728617543382e-02
94 6  -1.68018654072264220798e-10
94 5   3.37411323383251735009e-02
94 2  -1.60242996884092381293e-02
94 1   1.00333251916874116594e-02
94 3  -2.05747150949216993376e-02
94 4  -3.38919086799565269508e-02
95 7   3.26211119797791687658e-02
95 8  -6.12612588495929158428e-02
95 4  -3.96833056066671699402e-02
95 6  -2.79390444417606685287e-03
95 5   3.87285874865388943245e-02
95 1   1.23472045440281182060e-02
95 2  -1.86265841866799404525e-02
95 3  -2.51837203309218070346e-02
96 8  -6.61335519340266742017e-02
96 7   2.99050940320869929057e-02
96 1   1.45343848692846763782e-02
96 6  -7.02276152907262141145e-03
96 5   4.18550128545697799898e-02
96 2  -2.03803962161443509571e-02
96 3  -2.94525785448212576445e-02
96 4  -4.38500633395378092150e-02
97 5   4.31332292037109529814e-02
97 7   2.37367553131804139011e-02
97 8  -6.77323154753800976691e-02
97 6  -1.25982755106879562579e-02
97 2  -2.11987185722978949132e-02
97 1   1.65724227375931357220e-02
97 3  -3.33289040156247093338e-02
97 4  -4.62215943274491489201e-02
98 8  -6.60619257672338533460e-02
98 7   1.46434997612362328284e-02
98 6  -1.92882048527464218524e-02
98 1   1.84404051225213715115e-02
98 5   4.27251495243783779854e-02
98 2  -2.10338706727777845218e-02
98 3  -3.67680362182022657525e-02
98 4  -4.67008078131557827217e-02
99 4  -4.52680847402712471794e-02
99 7   3.45162185906080880293e-03
99 8  -6.13061093828691852647e-02
99 6  -2.67347994473272690397e-02
99 5   4.09240636493700821186e-02
99 1   2.01191639970212665656e-02
99 2  -1.98796060952603943772e-02
99 3  -3.97336980596239425223e-02
100 8  -5.38098421743420166075e-02
100 7  -8.78916493893540373694e-03
100 5   3.81251118027679941624e-02
100 6  -3.44849885153285795614e-02
100 2  -1.77715016562400643374e-02
100 1   2.15914730233226909162e-02
100 3  -4.21984085367726746707e-02
100 4  -4.19820809597667779500e-02
101 7  -2.09029583864773146895e-02
101 8  -4.40514427335893382631e-02
101 6  -4.20295774165428404068e-02
101 5   3.47866822353803534229e-02
101 2  -1.47856207334139226617e-02
101 1   2.28422243184714657271e-02
101 3  -4.41436439265974617241e-02
101 4  -3.69773258525182557666e-02
102 7  -3.16976992870852750106e-02
102 8  -3.26072670269733355664e-02
102 4  -3.04587146806671558996e-02
102 6  -4.88478823914694840203e-02
102 5   3.13862978248179852470e-02
102 1   2.38585834816491641763e-02
102 2  -1.10355043256752452518e-02
102 3  -4.55597508006243337442e-02
103 8  -2.01118917410496346465e-02
103 7  -4.00778236139587504261e-02
103 1   2.46301212924951960781e-02
103 6  -5.44537305042517086329e-02
103 5   2.83750590211724641743e-02
103 2  -6.66761195856663702736e-03
103 3  -4.64456230993478200175e-02
103 4  -2.26931201515051493567e-02
104 5   2.61348397379699490251e-02
104 7  -4.51490665848059830045e-02
104 8  -7.21690421319645322717e-03
104 6  -5.84386236424792523958e-02
104 2  -1.85539816885218838104e-03
104 1   2.51489207290191765787e-02
104 3  -4.68081638561784682540e-02
104 4  -1.39984666174781495485e-02
105 8   5.44861695058315980561e-03
105 7  -4.63056291547090798089e-02
105 6  -6.05081221659952706027e-02
105 1   2.54096582069588891595e-02
105 5   2.49421769033285126160e-02
105 2   3.20773366688667299282e-03
105 3  -4.66615595961394347135e-02
105 4  -4.73071421585302600427e-03
106 8   1.73131346341101090280e-02
106 6  -6.05081221697843299467e-02
106 7  -4.32915013235800755220e-02
106 5   2.49421769028765442922e-02
106 1   2.54096582069589828345e-02
106 2   8.31631225371550625303e-03
106 3  -4.60264016611814444357e-02
106 4   4.73071418113355998680e-03
107 8   2.78909140895945081851e-02
107 6  -5.84386236536908604267e-02
107 7  -3.62300818388374273882e-02
107 5   2.61348397366314849632e-02
107 2   1.32611917840575136568e-02
107 1   2.51489207290190690258e-02
107 3  -4.49286934917908220566e-02
107 4   1.39984665832369736815e-02
108 4   2.26931201182016852036e-02
108 6  -5.44537305224264411851e-02
108 7  -2.56191262362114383078e-02
108 8   3.68019089752480640931e-02
108 5   2.83750590190045837158e-02
108 1   2.46301212924952030170e-02
108 2   1.78381143916285511697e-02
108 3  -4.33987860430779803789e-02
109 8   4.37824584152393600500e-02
109 6  -4.88478824158631863561e-02
109 7  -1.22912300464779536413e-02
109 5   3.13862978219069596597e-02
109 2   2.18560911057279795566e-02
109 1   2.38585834816490635624e-02
109 3  -4.14702849195458245202e-02
109 4   3.04587146487354035185e-02
110 4   3.69773258223410061785e-02
110 6  -4.20295774461572554936e-02
110 7   2.65677958676361356330e-03
110 8   4.86868031004783347049e-02
110 5   3.47866822318476306974e-02
110 1   2.28422243184714518494e-02
110 2   2.51452579976369702819e-02
110 3  -3.91789724343738834933e-02
111 8   5.14802093717901254610e-02
111 6  -3.44849885489499907720e-02
111 7   1.79593033267994757474e-02
111 4   4.19820809316774762321e-02
111 5   3.81251117987593049485e-02
111 1   2.15914730233226631606e-02
111 2   2.75638855075303022824e-02
111 3  -3.65617856676207358957e-02
112 5   4.09240636450499475907e-02
112 7   3.22937349841957571650e-02
112 8   5.22251607947364221429e-02
112 6  -2.67347994835796763657e-02
112 2   2.90042534240626086184e-02
112 1   2.01191639970211971766e-02
112 3  -3.36558878160836891236e-02
112 4   4.52680847145474352100e-02
113 8   5.10625795018835593186e-02
113 7   4.43984582459368143370e-02
113 6  -1.92882048901465742718e-02
113 4   4.67008077900128229509e-02
113 5   4.27251495199236497324e-02
113 1   1.84404051225215033505e-02
113 2   2.93971502497671413612e-02
113 3  -3.04978648657564972713e-02
114 8   4.81903338780821505205e-02
114 7   5.31863876610882552187e-02
114 5   4.31332291993019659171e-02
114 6  -1.25982755477040547776e-02
114 2   2.87148118315061588735e-02
114 1   1.65724227375931461304e-02
114 3  -2.71230731061555367656e-02
114 4   4.62215943070470453025e-02
115 7   5.78437288345030678482e-02
115 8   4.38413546186282587769e-02
115 6  -7.02276156419142857934e-03
115 5   4.18550128503853702266e-02
115 2   2.69721778695963983197e-02
115 1   1.45343848692846833170e-02
115 3  -2.35651555249143732085e-02
115 4   4.38500633219820190600e-02
116 7   5.79049382448139221546e-02
116 8   3.82635193058598957472e-02
116 4   3.96833055920220792445e-02
116 6  -2.79390447595833551001e-03
116 5   3.87285874827512296981e-02
116 1   1.23472045440281164713e-02
116 2   2.42264136342360686394e-02
116 3  -1.98557369907559448652e-02
117 8   3.17030993731706386973e-02
117 7   5.32969942669512461442e-02
117 1   1.00333251916873509441e-02
117 6  -1.95164895327921940265e-10
117 5   3.37411323350887970562e-02
117 2   2.05747151018805668476e-02
117 3  -1.60242996984553999484e-02
117 4   3.38919086682493431173e-02
118 5   2.70331689224471913291e-02
118 7   4.43488544913557755645e-02
118 8   2.43930346065093089925e-02
118 6   1.41962551461526000768e-03
118 2   1.61504858766177844531e-02
118 1   7.61649034559748559087e-03
118 3  -1.20982319675653291619e-02
118 4   2.67129730212294289049e-02
119 8   1.65466659357859473267e-02
119 7   3.17651189194255237358e-02
119 6   1.66579972220753371945e-03
119 1   5.12150000178382674293e-03
119 5   1.88889243788290493720e-02
119 2   1.11180408116691754883e-02
119 3  -8.10303551084113476977e-03
119 4   1.84404051198970089787e-02
120 6   1.05768528125877738465e-03
120 7   1.65661576530955895192e-02
120 8   8.35688322462563304427e-03
120 5   9.71365861186973718333e-03
120 2   5.66605147039429997424e-03
120 1   2.57395613744031137582e-03
120 3  -4.06266905404376477834e-03
120 4   9.41288486617461277184e-03
121 6   2.01835814598174019541e-03
121 7   1.26922768124955055030e-02
121 8  -1.66067523072597027223e-02
121 5   1.12370665413275231531e-02
121 2  -5.57103851108066427944e-03
121 1   3.16756033609520313774e-03
121 4  -1.10213440742418910395e-02
121 3  -6.27439609215542544451e-03
122 4  -2.15914730272045995996e-02
122 7   2.40582232314792907046e-02
122 8  -3.23286818834990080651e-02
122 6   3.47611087144255193754e-03
122 5   2.18189312333778966113e-02
122 1   6.30261721673835550311e-03
122 2  -1.08930315007113847486e-02
122 3  -1.24605517438848827777e-02
123 7   3.28998013595635727113e-02
123 6   3.86792523739747876738e-03
123 8  -4.63359881770925158273e-02
123 5   3.11466353963079298217e-02
123 2  -1.57273445455258197023e-02
123 1   9.37300071591615387157e-03
123 4  -3.12776445376871867210e-02
123 3  -1.84721086749730679932e-02
124 4  -3.96833056060419062105e-02
124 7   3.82635192911540550353e-02
124 8  -5.79049382522155361985e-02
124 6   2.79390405756527919826e-03
124 5   3.87285875181531125122e-02
124 1   1.23472045440282361672e-02
124 2  -1.98557369790682558541e-02
124 3  -2.42264136261635260050e-02
125 8  -6.64612796872382366464e-02
125 7   3.95337219706837425526e-02
125 6  -2.21128792243732144511e-10
125 4  -4.64643274805675299266e-02
125 5   4.42219180435833719711e-02
125 1   1.51947093450518575658e-02
125 2  -2.30895052351076553177e-02
125 3  -2.96462248664645933172e-02
126 8  -7.16129793915250278946e-02
126 7   3.64941237448909716612e-02
126 5   4.74603101534783050619e-02
126 6  -4.59506617317301160192e-03
126 2  -2.52774104059411454382e-02
126 1   1.78862958664368909556e-02
126 3  -3.46612496940869319051e-02
126 4  -5.13430943290417371450e-02
127 7   2.93517314412381248590e-02
127 8  -7.31701015253315573128e-02
127 5   4.84657909775924045093e-02
127 6  -1.08888847893808850265e-02
127 2  -2.63120633875974264948e-02
127 1   2.03943447881770878460e-02
127 3  -3.92094666579898554204e-02
127 4  -5.41198688635018895776e-02
128 6  -1.86014786241298045455e-02
128 7   1.87207964702214187114e-02
128 8  -7.11506596049548273308e-02
128 5   4.74434372741106002991e-02
128 2  -2.61345042187353764074e-02
128 1   2.26931201344063269987e-02
128 4  -5.46809696082963536679e-02
128 3  -4.32381943304203861245e-02
129 4  -5.30034250330324238631e-02
129 7   5.56814756251863222231e-03
129 8  -6.57723796693923667966e-02
129 6  -2.72979310329271619706e-02
129 5   4.47595147742836027560e-02
129 1   2.47590333593383886412e-02
129 2  -2.47367862586186926244e-02
129 3  -4.67048779629664068125e-02
130 7  -8.87515018062361160656e-03
130 6  -3.64254812173511050011e-02
130 8  -5.74313995776531624471e-02
130 5   4.09050875883945549982e-02
130 2  -2.21624576595965995518e-02
130 1   2.65708853976660865082e-02
130 4  -4.91559140097564961636e-02
130 3  -4.95775758797111151810e-02
131 4  -4.32959540918403176790e-02
131 7  -2.32277209990264348061e-02
131 8  -4.66699126416398185624e-02
131 6  -4.53617113570708510584e-02
131 5   3.64484641647967524958e-02
131 1   2.81100841956580665970e-02
131 2  -1.85049188203797350394e-02
131 3  -5.18351385807363437830e-02
132 8  -3.41355605094257122389e-02
132 7  -3.60868981378795333770e-02
132 6  -5.34694318193649140158e-02
132 4  -3.56634527268588283344e-02
132 5   3.19808673152565808850e-02
132 1   2.93608354907870967854e-02
132 2  -1.39037216263011211698e-02
132 3  -5.34670848043360194546e-02
133 8  -2.05359263203837606737e-02
133 7  -4.61609086971909512997e-02
133 5   2.80603341474308168313e-02
133 6  -6.01532529078836752934e-02
133 2  -8.53896072329402532064e-03
133 1   3.03103048822368943693e-02
133 3  -5.44731897786701960151e-02
133 4  -2.65708854174823948247e-02
134 7  -5.23919549498920236741e-02
134 8  -6.59173319154159834815e-03
134 6  -6.49126735173583546690e-02
134 4  -1.63905029376959117393e-02
134 5   2.51590106977680021128e-02
134 1   3.09487495292216710507e-02
134 2  -2.62398537472788555974e-03
134 3  -5.48628111481600372334e-02
135 8   7.00770023820320407670e-03
135 7  -5.40587146849320562825e-02
135 5   2.36186910908091698968e-02
135 6  -6.73868329352465406101e-02
135 2   3.60327059319374672433e-03
135 1   3.12696181257148056454e-02
135 3  -5.46539871826199480376e-02
135 4  -5.53909134237059400802e-03
136 7  -5.08486348394082826596e-02
136 8   1.96435442461302608996e-02
136 6  -6.73868329393909060165e-02
136 5   2.36186910902217994668e-02
136 2   9.88998646617108428947e-03
136 1   3.12696181257147640120e-02
136 3  -5.38723495109848030116e-02
136 4   5.53909130279519809625e-03
137 7  -4.28931364591972549838e-02
137 8   3.07984858941452478709e-02
137 4   1.63905028986779562061e-02
137 6  -6.49126735296182283408e-02
137 5   2.51590106960312143158e-02
137 1   3.09487495292216502341e-02
137 2   1.59787833577071450297e-02
137 3  -5.25498984713700795224e-02
138 8   4.00779078812140004962e-02
138 7  -3.07622343059368238971e-02
138 1   3.03103048822368492665e-02
138 6  -6.01532529277554878222e-02
138 5   2.80603341446159122718e-02
138 2   2.16182613309610603680e-02
138 3  -5.07236930134691357819e-02
138 4   2.65708853795554519883e-02
139 5   3.19808673114780686597e-02
139 7  -1.54187913842320934582e-02
139 8   4.72203513150540182819e-02
139 6  -5.34694318460341294630e-02
139 2   2.65733135355494566598e-02
139 1   2.93608354907870759687e-02
139 3  -4.84345087888382666574e-02
139 4   3.56634526905214160886e-02
140 8   5.20973562178919519239e-02
140 7   1.86366339891339558368e-03
140 6  -4.53617113894461895796e-02
140 1   2.81100841956581255776e-02
140 5   3.64484641602114134429e-02
140 2   3.06347948736904809874e-02
140 3  -4.57255175683202105819e-02
140 4   4.32959540575392418105e-02
141 6  -3.64254812541069047938e-02
141 7   1.96122676370282314484e-02
141 8   5.47036827263117711451e-02
141 5   4.09050875831894131252e-02
141 2   3.36281489143867434732e-02
141 1   2.65708853976660934471e-02
141 3  -4.26410384724771121534e-02
141 4   4.91559139778699541456e-02
142 6  -2.72979310725600041176e-02
142 7   3.62853205679344384404e-02
142 8   5.51396926351103849884e-02
142 5   4.47595147686734168291e-02
142 2   3.54206392070208070377e-02
142 1   2.47590333593383123134e-02
142 4   5.30034250038746712619e-02
142 3  -3.92254068173774478323e-02
143 4   5.46809695821057067944e-02
143 7   5.04101599918331463868e-02
143 8   5.35882482539470489380e-02
143 6  -1.86014786650169731963e-02
143 5   4.74434372683241525892e-02
143 1   2.26931201344062472014e-02
143 2   3.59268880717998964625e-02
143 3  -3.55219998739762926609e-02
144 7   6.07159192132084926663e-02
144 6  -1.08888848298483095767e-02
144 8   5.02888163441484389860e-02
144 5   4.84657909718650969921e-02
144 2   3.51124950355543308245e-02
144 1   2.03943447881771884600e-02
144 4   5.41198688404545061315e-02
144 3  -3.15724507983503668851e-02
145 4   5.13430943092428038188e-02
145 7   6.62490822344601743010e-02
145 8   4.55115258847925072128e-02
145 6  -4.59506621156478920615e-03
145 5   4.74603101480418829161e-02
145 1   1.78862958664368562611e-02
145 2   3.29955855109046181095e-02
145 3  -2.74160727578555245276e-02
146 8   3.95337219875881856757e-02
146 7   6.64612796807053513026e-02
146 6  -2.55874359317795301553e-10
146 4   4.64643274640773179529e-02
146 5   4.42219180386615243195e-02
146 1   1.51947093450518471575e-02
146 2   2.96462248758099372603e-02
146 3  -2.30895052486836324657e-02
147 8   3.26211119975994903730e-02
147 7   6.12612588444045105818e-02
147 5   3.87285875139489546570e-02
147 6   2.79390402788837199921e-03
147 2   2.51837203389948978416e-02
147 1   1.23472045440282274936e-02
147 3  -1.86265841983668176129e-02
147 4   3.96833055928801567425e-02
148 7   5.10261925958112108614e-02
148 8   2.50149635129373083819e-02
148 6   3.86792521400424046604e-03
148 4   3.12776445278438938735e-02
148 5   3.11466353929950555413e-02
148 1   9.37300071591627183276e-03
148 2   1.97719193051697217367e-02
148 3  -1.40584271118867672884e-02
149 8   1.69260549000582287416e-02
149 7   3.65711695629954355868e-02
149 5   2.18189312310913471893e-02
149 6   3.47611085529211895004e-03
149 2   1.36126948495829125374e-02
149 1   6.30261721673828091000e-03
149 3  -9.41371468728572496909e-03
149 4   2.15914730206618540875e-02
150 7   1.90794967456774655634e-02
150 8   8.53527485785605596891e-03
150 6   2.01835813773725827533e-03
150 5   1.12370665401603682387e-02
150 2   6.93788302273124022485e-03
150 1   3.16756033609514762658e-03
150 3  -4.71914140912759079438e-03
150 4   1.10213440709755767372e-02
151 7   1.44582751925620509731e-02
151 8  -1.66448427935246903719e-02
151 4  -1.21785881580263738444e-02
151 6   3.33379852682259706156e-03
151 5   1.22696883553550933899e-02
151 1   3.72866107930100790235e-03
151 2  -6.60719240457462858584e-03
151 3  -6.98930697301468426691e-03
152 8  -3.23817846363314704172e-02
152 7   2.74332153496997660502e-02
152 1   7.41906105023264466486e-03
152 6   5.99785670483682017973e-03
152 5   2.37779420333017812994e-02
152 2  -1.29207175321623384673e-02
152 3  -1.38788115930163890449e-02
152 4  -2.38585834860200185492e-02
153 5   3.38294315616335383723e-02
153 7   3.75839749397092262595e-02
153 8  -4.63608653176097521009e-02
153 6   7.38759848191404295409e-03
153 2  -1.86591686140753290624e-02
153 1   1.10333314151744143333e-02
153 3  -2.05708853193493149125e-02
153 4  -3.45618056029851974942e-02
154 8  -5.78437288432237239899e-02
154 7   4.38413546063842335387e-02
154 6   7.02276110984573209706e-03
154 1   1.45343848692847388282e-02
154 5   4.18550129340510140841e-02
154 2  -2.35651555120883378358e-02
154 3  -2.69721778607656913207e-02
154 4  -4.38500633379542564816e-02
155 4  -5.13430943279975168791e-02
155 7   4.55115258711216649767e-02
155 8  -6.62490822421491348804e-02
155 6   4.59506569723758251378e-03
155 5   4.74603102054930656162e-02
155 1   1.78862958664367729944e-02
155 2  -2.74160727429865469507e-02
155 3  -3.29955855007117576649e-02
156 8  -7.11866916564673907208e-02
156 7   4.23445785180747089060e-02
156 5   5.04583815017479800358e-02
156 6  -2.53474350118930576316e-10
156 2  -3.00334361966596505300e-02
156 1   2.10546692639369467659e-02
156 3  -3.85620217462912528994e-02
156 4  -5.67341330040529376322e-02
157 7   3.45614024435740019303e-02
157 8  -7.24775885455961887960e-02
157 6  -6.65023945032976876446e-03
157 5   5.08835082522167136965e-02
157 2  -3.12904040108330852576e-02
157 1   2.40069932632343586987e-02
157 3  -4.36019362333954010880e-02
157 4  -5.98024696093480412351e-02
158 7   2.28362762154973863993e-02
158 8  -7.01592707799079534636e-02
158 4  -6.04224860827947685138e-02
158 6  -1.50338621959685905805e-02
158 5   4.89848773279071558751e-02
158 1   2.67129730249676573817e-02
158 2  -3.11171715039452803642e-02
158 3  -4.80565373421701982903e-02
159 8  -6.44758806810523388275e-02
159 7   8.23664271113292573157e-03
159 1   2.91448415350129101664e-02
159 6  -2.46460442991202899332e-02
159 5   4.52007681329397309478e-02
159 2  -2.95040172240623697897e-02
159 3  -5.18786851412720365073e-02
159 4  -5.85687988771525017140e-02
160 5   4.01156425919676901115e-02
160 7  -7.87447068160863732078e-03
160 8  -5.58545221980614250978e-02
160 6  -3.48425199263373702729e-02
160 2  -2.65018734766663890956e-02
160 1   3.12776445316225032434e-02
160 3  -5.50334336392664866255e-02
160 4  -5.43172981644452698702e-02
161 8  -4.48699422446826035049e-02
161 7  -2.39644505493683129815e-02
161 6  -4.48962388048955787778e-02
161 1   3.30894965699184417929e-02
161 5   3.44041016157609069737e-02
161 2  -2.22203962034479493570e-02
161 3  -5.74982143826542613230e-02
161 4  -4.78420408834036720025e-02
162 6  -5.40619160887307118046e-02
162 7  -3.84739177520991224024e-02
162 8  -3.22006578152563491257e-02
162 5   2.87668734360891006907e-02
162 2  -1.68236116404325806994e-02
162 1   3.45618055961710093915e-02
162 3  -5.92626666808614005477e-02
162 4  -3.94081248279343973606e-02
163 6  -6.16425761986882786436e-02
163 7  -4.99631778643357393754e-02
163 8  -1.85801909008884401364e-02
163 5   2.38647269759899478825e-02
163 2  -1.05233165863736852913e-02
163 1   3.56794637274290699080e-02
163 4  -2.93608355123035971723e-02
163 3  -6.03281326319653199430e-02
164 4  -1.81115101416021891112e-02
164 7  -5.72487290150613253870e-02
164 8  -4.74733256881282924405e-03
164 6  -6.70520057593511076277e-02
164 5   2.02563904416370593742e-02
164 1   3.64310022788414955563e-02
164 2  -3.57050128979336835189e-03
164 3  -6.07068471571124562702e-02
165 7  -5.95171239569858359642e-02
165 6  -6.98674024885989619627e-02
165 8   8.60072018793575122919e-03
165 5   1.83461844673081138357e-02
165 2   3.75485486057965285600e-03
165 1   3.68087094478831006183e-02
165 4  -6.12069741825436650084e-03
165 3  -6.04208639512390580095e-02
166 4   6.12069737598762344394e-03
166 7  -5.64055253946352808114e-02
166 8   2.08489121156685136560e-02
166 6  -6.98674024927772585603e-02
166 5   1.83461844665740968219e-02
166 1   3.68087094478830728628e-02
166 2   1.11551978075784194444e-02
166 3  -5.95007672031089562825e-02
167 8   3.14958007980433163375e-02
167 7  -4.80413225385578485094e-02
167 6  -6.70520057717114009721e-02
167 4   1.81115100999460834630e-02
167 5   2.02563904394652619101e-02
167 1   3.64310022788417314787e-02
167 2   1.83275566414497874390e-02
167 3  -5.79842257816971379247e-02
168 8   4.01740857674694612500e-02
168 7  -3.50369157761082281044e-02
168 5   2.38647269724678555425e-02
168 6  -6.16425762187242376466e-02
168 2   2.49759472644966520893e-02
168 1   3.56794637274289380691e-02
168 3  -5.59144510682691789349e-02
168 4   2.93608354718410922979e-02
169 7  -1.84398829749983297899e-02
169 6  -5.40619161156184468986e-02
169 5   2.87668734313631449528e-02
169 8   4.66593551656536015271e-02
169 1   3.45618055961712175583e-02
169 2   3.08235140970234272606e-02
169 3  -5.33386215706862926167e-02
169 4   3.94081247892121774856e-02
170 8   5.08672688530696429088e-02
170 6  -4.48962388375342275060e-02
170 7   3.57161179864276892310e-04
170 5   3.44041016100238711273e-02
170 2   3.56239124946031368579e-02
170 1   3.30894965699184556707e-02
170 3  -5.03063368288577950072e-02
170 4   4.78420408469034177945e-02
171 4   5.43172981305792487716e-02
171 6  -3.48425199633897939022e-02
171 7   1.97389883588121629876e-02
171 8   5.28403943469007569833e-02
171 5   4.01156425854561210498e-02
171 1   3.12776445316224199766e-02
171 2   3.91714653874640841846e-02
171 3  -4.68681599539136420352e-02
172 8   5.27267586577681163229e-02
172 6  -2.46460443390706003541e-02
172 7   3.80114508059336553281e-02
172 5   4.52007681259207413915e-02
172 2   4.13096775967600679524e-02
172 1   2.91448415350129517998e-02
172 3  -4.30743025884219032928e-02
172 4   5.85687988462476605278e-02
173 4   6.04224860551007408871e-02
173 6  -1.50338622371834641084e-02
173 7   5.35534492233445055809e-02
173 8   5.07528015281892078137e-02
173 5   4.89848773206643314793e-02
173 1   2.67129730249676539122e-02
173 2   4.19377582873486365322e-02
173 3  -3.89734983780061841618e-02
174 8   4.71937622850628069049e-02
174 6  -6.65023949112090746044e-03
174 7   6.49633756925042521457e-02
174 4   5.98024695850350174187e-02
174 5   5.08835082450490028272e-02
174 1   2.40069932632344280876e-02
174 2   4.10148833416874650237e-02
174 3  -3.46121015403199408511e-02
175 5   5.04583814949463860255e-02
175 7   7.11866916509147074077e-02
175 8   4.23445785325378895592e-02
175 6  -2.92175047664079733816e-10
175 2   3.85620217573642634634e-02
175 1   2.10546692639369190103e-02
175 3  -3.00334362129001213038e-02
175 4   5.67341329832180552017e-02
176 8   3.64941237633976747756e-02
176 7   7.16129793867939096197e-02
176 6   4.59506566221194994587e-03
176 4   5.13430943106852472058e-02
176 5   4.74603101993365528166e-02
176 1   1.78862958664367521777e-02
176 2   3.46612497042786682488e-02
176 3  -2.52774104208083952305e-02
177 8   2.99050940519261544692e-02
177 7   6.61335519303151292414e-02
177 5   4.18550129287912422993e-02
177 6   7.02276107992879598113e-03
177 2   2.94525785536509689122e-02
177 1   1.45343848692846139281e-02
177 3  -2.03803962289672777053e-02
177 4   4.38500633241646897709e-02
178 7   5.51542708932890590745e-02
178 8   2.28011273463692570873e-02
178 6   7.38759845833024744732e-03
178 5   3.38294315574878962094e-02
178 2   2.31284248081677148989e-02
178 1   1.10333314151744490278e-02
178 3  -1.53753654501634362539e-02
178 4   3.45618055926894471308e-02
179 7   3.95622799512802478250e-02
179 8   1.53618776893102368386e-02
179 4   2.38585834791849235592e-02
179 6   5.99785668855475941064e-03
179 5   2.37779420304393106222e-02
179 1   7.41906105023271231907e-03
179 2   1.59259462620442368563e-02
179 3  -1.02922586803351149426e-02
180 8   7.72585804750806383334e-03
180 7   2.06495431115625675822e-02
180 1   3.72866107930101223916e-03
180 6   3.33379851851081437583e-03
180 5   1.22696883538939930519e-02
180 2   8.11755595652199728185e-03
180 3  -5.15855491448512920583e-03
180 4   1.21785881546179353824e-02
181 5   1.28124471773123516788e-02
181 7   1.57895506199769199152e-02
181 8  -1.53827026755153969256e-02
181 6   4.97898901316824564478e-03
181 2  -7.59871560674670303709e-03
181 1   4.25150071414238592271e-03
181 3  -7.44615741067812444282e-03
181 4  -1.28372394116827819033e-02
182 8  -2.98969290377508953305e-02
182 7   2.99930536649911476388e-02
182 6   9.18224047568477232117e-03
182 1   8.45937527774558335747e-03
182 5   2.47687749150782739183e-02
182 2  -1.48619178691458998787e-02
182 3  -1.47838867706447801842e-02
182 4  -2.51489207336224492029e-02
183 4  -3.64310022860142163070e-02
183 7   4.11755780171151816726e-02
183 8  -4.27316528254681401999e-02
183 6   1.19084425980955175423e-02
183 5   3.50881143626201943975e-02
183 1   1.25804452036116579117e-02
183 2  -2.14680799914470747669e-02
183 3  -2.19071835666267596132e-02
184 8  -5.31863876707998270432e-02
184 7   4.81903338697643110478e-02
184 5   4.31332293463320554094e-02
184 6   1.25982750765846768931e-02
184 2  -2.71230730927288984922e-02
184 1   1.65724227375930871498e-02
184 3  -2.87148118222900136653e-02
184 4  -4.62215943245886523583e-02
185 7   5.02888163354953468542e-02
185 8  -6.07159192216715909440e-02
185 6   1.08888843014112376983e-02
185 5   4.84657911008872926972e-02
185 2  -3.15724507828248762697e-02
185 1   2.03943447881771919294e-02
185 3  -3.51124950249570993988e-02
185 4  -5.41198688610102646157e-02
186 7   4.71937622767213682540e-02
186 8  -6.49633756984598492723e-02
186 4  -5.98024696078132272925e-02
186 6   6.65023893760766961203e-03
186 5   5.08835083275374494560e-02
186 1   2.40069932632343517598e-02
186 2  -3.46121015234194251420e-02
186 3  -4.10148833302334259177e-02
187 8  -6.57792970198869814125e-02
187 7   3.91280524911746668826e-02
187 1   2.73732975007182875726e-02
187 6  -2.54485838155391674466e-10
187 5   5.04357384997911814550e-02
187 2  -3.60968302509561411728e-02
187 3  -4.63472359264098035525e-02
187 4  -6.30367502227942855253e-02
188 5   4.74161787250732130738e-02
188 7   2.67967661894281117263e-02
188 8  -6.32255128424140805388e-02
188 6  -8.70449044164425637937e-03
188 2  -3.59465156170965874360e-02
188 1   3.04587146638199100790e-02
188 3  -5.10467682746769749191e-02
188 4  -6.36902988776091583123e-02
189 8  -5.75638762820452135061e-02
189 7   1.13239315091499016808e-02
189 6  -1.88963904390270602540e-02
189 1   3.32315841972172232310e-02
189 5   4.23333351144338648764e-02
189 2  -3.41495885835580229029e-02
189 3  -5.50636266431671905774e-02
189 4  -6.17363592135709363107e-02
190 8  -4.92311157452414438485e-02
190 6  -2.98489762349462110780e-02
190 7  -5.85028479042197860349e-03
190 5   3.58615058541087508570e-02
190 1   3.56634527072165058437e-02
190 2  -3.07636879212202195288e-02
190 3  -5.83614664130668106545e-02
190 4  -5.72549257501263827996e-02
191 8  -3.88021577838133374661e-02
191 6  -4.07401618902961809576e-02
191 7  -2.31025302987773427377e-02
191 5   2.87767982653815042327e-02
191 2  -2.59134639111445568005e-02
191 1   3.77293659320731139539e-02
191 3  -6.09176254903168040711e-02
191 4  -5.04294688998359885712e-02
192 4  -4.15394236681171993841e-02
192 6  -5.07260297709468885308e-02
192 7  -3.87771327884060684754e-02
192 8  -2.69451466689191246329e-02
192 5   2.18840703743229392231e-02
192 1   3.94081248064851522028e-02
192 2  -1.97856184871376995782e-02
192 3  -6.27228992123475548315e-02
193 8  -1.43719689595895906697e-02
193 6  -5.90166450273902909451e-02
193 7  -5.13409606412712146706e-02
193 5   1.59415172358549454834e-02
193 2  -1.26213834061484585225e-02
193 1   4.06825029926895578858e-02
193 3  -6.37809377953405531869e-02
193 4  -3.09487495512985287538e-02
194 4  -1.90910299920785050953e-02
194 6  -6.49472168296172519542e-02
194 7  -5.95279510304979886381e-02
194 8  -1.78833761508964575286e-03
194 5   1.15898353914293834183e-02
194 1   4.15394236459970533915e-02
194 2  -4.70674314156055428882e-03
194 3  -6.41073010404860504918e-02
195 8   1.01526156241441966460e-02
195 6  -6.80380926084421661093e-02
195 7  -6.24598895616240573636e-02
195 4  -6.45172142243879368634e-03
195 5   9.29247586714377314665e-03
195 1   4.19700936009124031534e-02
195 2   3.63919824007406886995e-03
195 3  -6.37282171661979202071e-02
196 5   9.29247586624800531174e-03
196 7  -5.97321727302823415884e-02
196 8   2.08897330923724852680e-02
196 6  -6.80380926123353713120e-02
196 2   1.20772307282111593385e-02
196 1   4.19700936009123476422e-02
196 3  -6.26791027792389654483e-02
196 4   6.45172137972468279221e-03
197 8   2.99834359392079502493e-02
197 7  -5.14564735838264827872e-02
197 5   1.15898353887810261903e-02
197 6  -6.49472168411383693476e-02
197 2   2.02619002813596953139e-02
197 1   4.15394236459969909414e-02
197 3  -6.10029087458774377239e-02
197 4   1.90910299500032798470e-02
198 6  -5.90166450460656230592e-02
198 7  -3.82561698136775416024e-02
198 8   3.71337205393540495391e-02
198 5   1.59415172315638051237e-02
198 2   2.78556517561297685426e-02
198 1   4.06825029926895925803e-02
198 4   3.09487495104723668582e-02
198 3  -5.87483617783767092524e-02
199 4   4.15394236291054819166e-02
199 7  -2.12147214528545131895e-02
199 8   4.21858097962787420565e-02
199 6  -5.07260297960114708848e-02
199 5   2.18840703685652913923e-02
199 1   3.94081248064852493473e-02
199 2   3.45426738391046081467e-02
199 3  -5.59681737264645304264e-02
200 7  -1.78150563777325831802e-03
200 6  -4.07401619207206494577e-02
200 8   4.51238361689916822606e-02
200 5   2.87767982583910647554e-02
200 2   4.00418789079230036387e-02
200 1   3.77293659320731555873e-02
200 4   5.04294688631395926492e-02
200 3  -5.27172897905526932627e-02
201 4   5.72549257161617322631e-02
201 7   1.83564679423445127615e-02
201 8   4.60539756434027794385e-02
201 6  -2.98489762694864185777e-02
201 5   3.58615058461743199669e-02
201 1   3.56634527072166515604e-02
201 2   4.41184859062363973758e-02
201 3  -4.90512432064695372280e-02
202 8   4.51793297067265148259e-02
202 7   3.74253850134809093464e-02
202 6  -1.88963904762694187567e-02
202 4   6.17363591826676702534e-02
202 5   4.23333351058789442156e-02
202 1   3.32315841972172093532e-02
202 2   4.65937312575098114276e-02
202 3  -4.50246775617193714658e-02
203 8   4.27694888222637445430e-02
203 7   5.37243238925901867020e-02
203 5   4.74161787162464334888e-02
203 6  -8.70449048006462222649e-03
203 2   4.73523092363515446523e-02
203 1   3.04587146638199378346e-02
203 3  -4.06900890733000175636e-02
203 4   6.36902988500057942733e-02
204 7   6.57792970170529706087e-02
204 8   3.91280524988204259085e-02
204 6  -2.92511215708007502979e-10
204 4   6.30367501986438261152e-02
204 5   5.04357384910557315916e-02
204 1   2.73732975007182355309e-02
204 2   4.63472359381758985952e-02
204 3  -3.60968302684651770607e-02
205 8   3.45614024584135828833e-02
205 7   7.24775885427158816920e-02
205 5   5.08835083192490655879e-02
205 6   6.65023890153310787143e-03
205 2   4.36019362448467548421e-02
205 1   2.40069932632344731904e-02
205 3  -3.12904040277313666429e-02
205 4   5.98024695871886211029e-02
206 7   7.31701015228517631650e-02
206 8   2.93517314609242178924e-02
206 6   1.08888842687630306438e-02
206 5   4.84657910933864802261e-02
206 2   3.92094666685831663711e-02
206 1   2.03943447881771502961e-02
206 3  -2.63120634031186531598e-02
206 4   5.41198688439286368368e-02
207 7   6.77323154735079008271e-02
207 8   2.37367553346401298497e-02
207 4   4.62215943110231147761e-02
207 6   1.25982750486984124150e-02
207 5   4.31332293399244656729e-02
207 1   1.65724227375931981721e-02
207 2   3.33289040248372497866e-02
207 3  -2.11987185857175977621e-02
208 8   1.78977399884946188069e-02
208 7   5.65782050132200078907e-02
208 1   1.25804452036116197478e-02
208 6   1.19084425761127356280e-02
208 5   3.50881143575729192996e-02
208 2   2.61790457462793696441e-02
208 3  -1.59831384555290528793e-02
208 4   3.64310022759107288159e-02
209 5   2.47687749115929924104e-02
209 7   4.06257406934942069676e-02
209 8   1.19565391177798747979e-02
209 6   9.18224046050877817926e-03
209 2   1.80296775627386655916e-02
209 1   8.45937527774555907134e-03
209 3  -1.06944208879161239273e-02
209 4   2.51489207269277315060e-02
210 8   5.98135491656114591519e-03
210 7   2.12169942238611304586e-02
210 6   4.97898900542154652926e-03
210 1   4.25150071414238679007e-03
210 5   1.28124471755329035622e-02
210 2   9.19076373771636305487e-03
210 3  -5.35869397005149083330e-03
210 4   1.28372394083489330813e-02
211 8  -1.29483448491601038643e-02
211 6   6.89214560804751741330e-03
211 7   1.66122064997637347572e-02
211 5   1.29046756830196191618e-02
211 1   4.73071419845215879879e-03
211 2  -8.53668673876426843672e-03
211 3  -7.63018168854017343056e-03
211 4  -1.29703325755011478204e-02
212 8  -2.51254014318209387135e-02
212 6   1.29072426212464615863e-02
212 7   3.15949440443977699888e-02
212 5   2.48706060676649846897e-02
212 2  -1.66992062938929389238e-02
212 1   9.41288486753468281454e-03
212 3  -1.51464377668899703722e-02
212 4  -2.54096582114950210463e-02
213 4  -3.68087094549581425595e-02
213 6   1.72511995566938663993e-02
213 7   4.34725313401760210530e-02
213 8  -3.58135796402745953948e-02
213 5   3.50426360599728828338e-02
213 1   1.39984666001814386099e-02
213 2  -2.41289631211500966990e-02
213 3  -2.24374703366455284514e-02
214 8  -4.43984582561398541389e-02
214 6   1.92882044198275266755e-02
214 7   5.10625794983156078288e-02
214 5   4.27251497428036419723e-02
214 2  -3.04978648522735533433e-02
214 1   1.84404051225213853893e-02
214 3  -2.93971502405354218057e-02
214 4  -4.67008078087251671251e-02
215 4  -5.46809696039877932150e-02
215 6   1.86014781436380643997e-02
215 7   5.35882482513065153129e-02
215 8  -5.04101600004935312960e-02
215 5   4.74434374848074769115e-02
215 1   2.26931201344063616931e-02
215 2  -3.55219998584354948457e-02
215 3  -3.59268880612371652172e-02
216 8  -5.35534492290615990462e-02
216 6   1.50338617001074884016e-02
216 7   5.07528015271170238054e-02
216 4  -6.04224860792808710075e-02
216 5   4.89848774982435189451e-02
216 1   2.67129730249676400344e-02
216 2  -3.89734983611611310317e-02
216 3  -4.19377582760066119905e-02
217 5   4.74161788237331058293e-02
217 7   4.27694888230914158078e-02
217 8  -5.37243238946818954527e-02
217 6   8.70448996183516461589e-03
217 2  -4.06900890559455941098e-02
217 1   3.04587146638198649762e-02
217 3  -4.73523092248003749094e-02
217 4  -6.36902988755491811235e-02
218 8  -5.10120092966444144134e-02
218 7   3.03439025387318810079e-02
218 5   4.30751273701631548496e-02
218 6  -2.17953344506745292071e-10
218 2  -4.05819576637057866098e-02
218 1   3.38919086729561891413e-02
218 3  -5.21060035765470788705e-02
218 4  -6.43506233530058147085e-02
219 7   1.46103510011601038510e-02
219 8  -4.56864796598061007060e-02
219 4  -6.23764257499828389530e-02
219 6  -1.04589432101880701331e-02
219 5   3.65376139863857404833e-02
219 1   3.69773258359973877596e-02
219 2  -3.86356244124827843955e-02
219 3  -5.61482480771231945438e-02
220 8  -3.81728279019224805979e-02
220 7  -2.97196152206213003166e-03
220 6  -2.18727493044251104781e-02
220 4  -5.78485299483290915656e-02
220 5   2.85629892160369873444e-02
220 1   3.96833055976267209952e-02
220 2  -3.49146796476986626123e-02
220 3  -5.94429869665789589739e-02
221 8  -2.90148699599095082069e-02
221 7  -2.07534343247680677647e-02
221 5   2.00227755920800859490e-02
221 6  -3.33346053219343574359e-02
221 2  -2.95573455695093030571e-02
221 1   4.19820809437267197795e-02
221 3  -6.19688499361007033572e-02
221 4  -5.09523085341831438733e-02
222 2  -2.27709622255174021221e-02
222 7  -3.70468858000518319606e-02
222 6  -4.39122114782852651649e-02
222 8  -1.88312157220109285816e-02
222 5   1.18192929032000411393e-02
222 1   4.38500633285208232803e-02
222 3  -6.37188621961259082926e-02
222 4  -4.19700936225179052630e-02
223 5   4.80167499322561343311e-03
223 7  -5.02846066562742458061e-02
223 8  -8.26759218953702565424e-03
223 6  -5.27320722184472928662e-02
223 2  -1.48236220168376630485e-02
223 1   4.52680847249703477431e-02
223 3  -6.46997404782500284970e-02
223 4  -3.12696181471867895585e-02
224 8   2.05057918078549016733e-03
224 7  -5.91651513957268324062e-02
224 6  -5.90586222736362298491e-02
224 3  -6.49308139467829753544e-02
224 5  -3.13006312357551829371e-04
224 1   4.62215943146692814780e-02
224 2  -6.03329393934919164938e-03
224 4  -1.92889608314008309531e-02
225 7  -6.27762813499297689379e-02
225 6  -6.23609405621897358585e-02
225 5  -3.00626534017365155266e-03
225 3  -6.44426224491467664057e-02
225 2   3.24511821091090372007e-03
225 1   4.67008077989309322575e-02
225 8   1.15614845500058103372e-02
225 4  -6.51861119334124720220e-03
226 8   1.98027031760865182553e-02
226 7  -6.06826364941749560322e-02
226 5  -3.00626534124154732447e-03
226 6  -6.23609405655130150103e-02
226 2   1.26342546083934095802e-02
226 1   4.67008077989309530742e-02
226 3  -6.32752557565867679301e-02
226 4   6.51861115235943811008e-03
227 7  -5.29699308946105923424e-02
227 8   2.64368386005310249121e-02
227 6  -5.90586222834691768058e-02
227 5  -3.13006315515860621818e-04
227 2   2.17497229058089755482e-02
227 1   4.62215943146693161725e-02
227 3  -6.14765059986568038197e-02
227 4   1.92889607910616163455e-02
228 6  -5.27320722343868619753e-02
228 7  -4.02414435643373771812e-02
228 8   3.12653316989833784945e-02
228 4   3.12696181081016585934e-02
228 5   4.80167498810690328986e-03
228 1   4.52680847249703061097e-02
228 2   3.02158353019897317482e-02
228 3  -5.90999110478203151797e-02
229 6  -4.39122114996775142481e-02
229 7  -2.35669483932779491586e-02
229 8   3.42298900878743941889e-02
229 5   1.18192928963298162642e-02
229 2   3.76810148924348262134e-02
229 1   4.38500633285206706247e-02
229 3  -5.62027689582254783018e-02
229 4   4.19700935852536857751e-02
230 6  -3.33346053479008017084e-02
230 7  -4.38859282322904935281e-03
230 8   3.54020898668281625010e-02
230 4   5.09523084992306793395e-02
230 5   2.00227755837395736405e-02
230 1   4.19820809437266781461e-02
230 2   4.38322403015536793403e-02
230 3  -5.28442026309915158233e-02
231 8   3.49627480394096093463e-02
231 6  -2.18727493339045363230e-02
231 7   1.56078055415442562559e-02
231 4   5.78485299160953342357e-02
231 5   2.85629892065687070180e-02
231 1   3.96833055976265822173e-02
231 2   4.84079367080040776083e-02
231 3  -4.90833497270325991302e-02
232 5   3.65376139761755119872e-02
232 7   3.46443857811726749207e-02
232 8   3.31735333254205636000e-02
232 6  -1.04589432419725444912e-02
232 2   5.12087847242652452473e-02
232 1   3.69773258359974918430e-02
232 3  -4.49777456689317775562e-02
232 4   6.23764257207766945057e-02
233 8   3.03439025360628701622e-02
233 7   5.10120092979406275502e-02
233 6  -2.50744098663059945017e-10
233 2   5.21060035877586383291e-02
233 5   4.30751273596306286096e-02
233 1   3.38919086729563279192e-02
233 3  -4.05819576807810722396e-02
233 4   6.43506233270395577861e-02
234 7   6.32255128424920875840e-02
234 8   2.67967661963403915026e-02
234 6   8.70448992938304202949e-03
234 5   4.74161788133084169394e-02
234 2   5.10467682862275548561e-02
234 1   3.04587146638198545678e-02
234 3  -3.59465156344491790219e-02
234 4   6.36902988529440133858e-02
235 7   7.01592707795153647243e-02
235 8   2.28362762305913194472e-02
235 6   1.50338616693194895152e-02
235 5   4.89848774883546722592e-02
235 2   4.80565373535090795132e-02
235 1   2.67129730249677406484e-02
235 3  -3.11171715207857572938e-02
235 4   6.04224860600730134808e-02
236 7   7.11506596045683864515e-02
236 8   1.87207964909057548997e-02
236 4   5.46809695881597876421e-02
236 6   1.86014781157743079587e-02
236 5   4.74434374758588711662e-02
236 1   2.26931201344063547543e-02
236 2   4.32381943409768584874e-02
236 3  -2.61345042342696169679e-02
237 8   1.46434997841124511092e-02
237 7   6.60619257670662790582e-02
237 1   1.84404051225214096754e-02
237 6   1.92882043960278214134e-02
237 5   4.27251497351609013653e-02
237 2   3.67680362274274905032e-02
237 3  -2.10338706862521346297e-02
237 4   4.67008077962125650595e-02
238 5   3.50426360539500061919e-02
238 7   5.52947375246195735321e-02
238 8   1.07221952477531533993e-02
238 6   1.72511995379332344625e-02
238 2   2.88887709452298607760e-02
238 1   1.39984666001813275876e-02
238 3  -1.58456887026421355813e-02
238 4   3.68087094456753527449e-02
239 8   6.99901021067643718671e-03
239 7   3.97560076331644682290e-02
239 6   1.29072426082952849968e-02
239 1   9.41288486753477822433e-03
239 5   2.48706060635079939658e-02
239 2   1.98998084971692724976e-02
239 3  -1.05960223677641577483e-02
239 4   2.54096582053618506858e-02
240 2   1.01452408112316944805e-02
240 7   2.07780125897762853182e-02
240 8   3.44952635941417123586e-03
240 6   6.89214560143613149540e-03
240 5   1.29046756808984877662e-02
240 1   4.73071419845218828909e-03
240 3  -5.30742706538551555634e-03
240 4   1.29703325724544269587e-02
241 7   1.68605293629364300090e-02
241 8  -9.56752708328337253540e-03
241 6   8.97947021196675819465e-03
241 5   1.26195940063339104298e-02
241 2  -9.41173413847263239107e-03
241 1   5.16138415340163751038e-03
241 3  -7.53745505240787424389e-03
241 4  -1.25724187997271301398e-02
242 7   3.21105486955528957038e-02
242 8  -1.85095761272052669599e-02
242 6   1.69870675798418600821e-02
242 5   2.42299625630041821911e-02
242 2  -1.84142335247093197337e-02
242 1   1.02698055209054870535e-02
242 3  -1.49586923821500294984e-02
242 4  -2.46301212966742698318e-02
243 7   4.42898880332233679802e-02
243 8  -2.62477191022687274258e-02
243 4  -3.56794637339671386056e-02
243 6   2.31415822558598167913e-02
243 5   3.39129265058328785432e-02
243 1   1.52728447864688386681e-02
243 2  -2.66152629486679156989e-02
243 3  -2.21502782924315050339e-02
244 8  -3.22937349942615734011e-02
244 7   5.22251607959889341259e-02
244 1   2.01191639970212422794e-02
244 6   2.67347990286869591214e-02
244 5   4.09240639522400334593e-02
244 2  -3.36558878030634930911e-02
244 3  -2.90042534151617008298e-02
244 4  -4.52680847340493838771e-02
245 5   4.47595150836142055550e-02
245 7   5.51396926385464697384e-02
245 8  -3.62853205760566635552e-02
245 6   2.72979305756931682481e-02
245 2  -3.92254068024321736474e-02
245 1   2.47590333593383539468e-02
245 3  -3.54206391969004233400e-02
245 4  -5.30034250266250700490e-02
246 8  -3.80114508105890078205e-02
246 7   5.27267586640135649256e-02
246 6   2.46460438382606408791e-02
246 1   2.91448415350129101664e-02
246 5   4.52007684123126793341e-02
246 2  -4.30743025723112071823e-02
246 3  -4.13096775859837089806e-02
246 4  -5.85687988713067611557e-02
247 8  -3.74253850139338248293e-02
247 6   1.88963900085399837125e-02
247 7   4.51793297160615128782e-02
247 5   4.23333353287200370163e-02
247 1   3.32315841972172926200e-02
247 2  -4.50246775452422531849e-02
247 3  -4.65937312466580683123e-02
247 4  -6.17363592090296869896e-02
248 8  -3.46443857776941727122e-02
248 6   1.04589428400253415391e-02
248 7   3.31735333376854055198e-02
248 5   3.65376141050511166197e-02
248 2  -4.49777456528756419685e-02
248 1   3.69773258359975195986e-02
248 3  -5.12087847138936111402e-02
248 4  -6.23764257474321986985e-02
249 4  -6.04627940872430671981e-02
249 6  -1.43306692426650399923e-10
249 7   1.78072988697512320233e-02
249 8  -2.99363634543211784567e-02
249 5   2.84527945885944162641e-02
249 1   4.03436300733503866445e-02
249 2  -4.29180709634682036602e-02
249 3  -5.51055022430895075081e-02
250 8  -2.36947776379634357513e-02
250 6  -1.16178273490322916256e-02
250 7   4.99787210277391653890e-04
250 5   1.89171266605425610063e-02
250 2  -3.89143777404275664766e-02
250 1   4.32959540724772024012e-02
250 3  -5.82498150841442852155e-02
250 4  -5.60738085334960070782e-02
251 4  -4.93891546704473688445e-02
251 6  -2.34137408798985348357e-02
251 7  -1.71391757778227779574e-02
251 8  -1.64041192236098753998e-02
251 5   8.89004245574191373502e-03
251 1   4.58040029940278911602e-02
251 2  -3.31168969303660964965e-02
251 3  -6.06230288366135100508e-02
252 8  -8.59907477436747461064e-03
252 6  -3.43778465462313692624e-02
252 7  -3.34576701116277019921e-02
252 4  -4.06825030126695269539e-02
252 5  -6.36714408940534568569e-04
252 1   4.78420408621506310087e-02
252 2  -2.57513560732450103030e-02
252 3  -6.22214597015185513773e-02
253 5  -8.73079230856218038714e-03
253 7  -4.69145921775560859057e-02
253 8  -8.20971211281177866773e-04
253 6  -4.35630435884276773217e-02
253 2  -1.71098572478735472258e-02
253 1   4.93891546504269599027e-02
253 3  -6.30556261077808155591e-02
253 4  -3.03103049020149138693e-02
254 8   6.42472885232449938270e-03
254 7  -5.62228226199288985687e-02
254 6  -5.01712934334869742337e-02
254 2  -7.53901528700820066503e-03
254 5  -1.46053490213918658186e-02
254 1   5.04294688778219313274e-02
254 3  -6.31490386507851525488e-02
254 4  -1.86971993478174842995e-02
255 7  -6.04694457273444660461e-02
255 8   1.27062751252656098988e-02
255 6  -5.36263609512792338574e-02
255 5  -1.76916780961671668559e-02
255 2   2.57415910949981103714e-03
255 1   5.09523085126011854307e-02
255 3  -6.25366458811631720227e-02
255 4  -6.31862825594561687559e-03
256 7  -5.92019050671786298268e-02
256 8   1.76956980802357548288e-02
256 6  -5.36263609537980315278e-02
256 5  -1.76916780974178643182e-02
256 2   1.28180541713762089634e-02
256 1   5.09523085126010327750e-02
256 3  -6.12630056449056242807e-02
256 4   6.31862821867974159412e-03
257 7  -5.24720939027248783892e-02
257 8   2.11887301556140661418e-02
257 4   1.86971993111748613359e-02
257 6  -5.01712934409417124493e-02
257 5  -1.46053490250941456208e-02
257 1   5.04294688778218272440e-02
257 2   2.27732836311820147079e-02
257 3  -5.93802609229315062067e-02
258 8   2.31131684933869284426e-02
258 7  -4.08342306769467894290e-02
258 1   4.93891546504270154139e-02
258 6  -4.35630436005082638529e-02
258 5  -8.73079231456066508221e-03
258 2   3.20298564473761315785e-02
258 3  -5.69460050913219509305e-02
258 4   3.03103048665871628586e-02
259 5  -6.36714416992773999358e-04
259 7  -2.52966065407420719058e-02
259 8   2.35253368416711156064e-02
259 6  -3.43778465624442058912e-02
259 2   4.02039867467095593523e-02
259 1   4.78420408621506240698e-02
259 3  -5.40211239987177793687e-02
259 4   4.06825029789987316353e-02
260 8   2.25953871197005530524e-02
260 7  -7.23152503684174573217e-03
260 6  -2.34137408995769187581e-02
260 1   4.58040029940279605492e-02
260 5   8.89004244596716501625e-03
260 2   4.69538555298208912236e-02
260 3  -5.06677011546418157306e-02
260 4   4.93891546390017657786e-02
261 8   2.05831790625508187498e-02
261 6  -1.16178273713724855565e-02
261 7   1.17484047371841874435e-02
261 5   1.89171266494438938821e-02
261 1   4.32959540724771954623e-02
261 2   5.19936783463587071097e-02
261 3  -4.69470677080011805637e-02
261 4   5.60738085046488601848e-02
262 8   1.78072988551731259399e-02
262 6  -1.67394584404814863158e-10
262 7   2.99363634604142246631e-02
262 5   2.84527945766267845173e-02
262 2   5.51055022524806273343e-02
262 1   4.03436300733505046057e-02
262 3  -4.29180709783701999638e-02
262 4   6.04627940612699824041e-02
263 4   6.23764257245009653974e-02
263 6   1.04589428151749420232e-02
263 7   4.56864796632960937228e-02
263 8   1.46103509971222313840e-02
263 5   3.65376140927047982077e-02
263 1   3.69773258359974155152e-02
263 2   5.61482480874934547499e-02
263 3  -3.86356244285383995662e-02
264 8   1.13239315156551129810e-02
264 6   1.88963899839456467289e-02
264 7   5.75638762839694936857e-02
264 5   4.23333353165010820018e-02
264 2   5.50636266540171573358e-02
264 1   3.32315841972172926200e-02
264 3  -3.41495886000331913546e-02
264 4   6.17363591892193253052e-02
265 4   5.85687988546066198858e-02
265 6   2.46460438149294670807e-02
265 7   6.44758806822126606662e-02
265 8   8.23664272666898254760e-03
265 5   4.52007684007225893352e-02
265 1   2.91448415350129205748e-02
265 2   5.18786851520440100982e-02
265 3  -2.95040172401676292768e-02
266 8   5.56814758427569712201e-03
266 6   2.72979305545784749210e-02
266 7   6.57723796703024443655e-02
266 4   5.30034250129694448073e-02
266 5   4.47595150731253318965e-02
266 1   2.47590333593383851718e-02
266 2   4.67048779730805802002e-02
266 3  -2.47367862735566948484e-02
267 5   4.09240639432839684031e-02
267 7   6.13061093837571000065e-02
267 8   3.45162188334948794380e-03
267 6   2.67347990106519481368e-02
267 2   3.97336980685182861173e-02
267 1   2.01191639970213879962e-02
267 3  -1.98796061082718994451e-02
267 4   4.52680847233324426537e-02
268 7   5.14473230735408085246e-02
268 6   2.31415822416431091191e-02
268 5   3.39129264987733311520e-02
268 8   1.92610738021438887210e-03
268 1   1.52728447864687432584e-02
268 2   3.12290457504904202246e-02
268 3  -1.49584007348408307148e-02
268 4   3.56794637260664862510e-02
269 8   9.39280191853621333753e-04
269 6   1.69870675700262326047e-02
269 7   3.70514439556735714065e-02
269 5   2.42299625581328878510e-02
269 2   2.15166452074645776771e-02
269 1   1.02698055209055460341e-02
269 3  -9.99402088607561148170e-03
269 4   2.46301212914801781473e-02
270 4   1.25724187971536800063e-02
270 6   8.97947020695558442704e-03
270 7   1.93826040094351899346e-02
270 8   3.60120608096446801101e-04
270 5   1.26195940038467992184e-02
270 1   5.16138415340159327493e-03
270 2   1.09709397597423669729e-02
270 3  -5.00324385222420710273e-03
271 8  -5.54294386071110117831e-03
271 6   1.11229157822147744356e-02
271 7   1.64826173751489550579e-02
271 5   1.20567557376862824481e-02
271 2  -1.02141216606617055151e-02
271 1   5.53909132246583994774e-03
271 3  -7.17501735489896666498e-03
271 4  -1.16597887211008274105e-02
272 4  -2.28422243220620380111e-02
272 6   2.11875858279496030734e-02
272 7   3.14369964240800645050e-02
272 8  -1.06421468197662825311e-02
272 5   2.30456832669153101334e-02
272 1   1.10213440723591401399e-02
272 2  -1.99878948794698987901e-02
272 3  -1.42346913671071613472e-02
273 8  -1.48919211110827096750e-02
273 6   2.92332185677467992768e-02
273 7   4.34757436829255744515e-02
273 4  -3.30894965755657716189e-02
273 5   3.19965068763362267545e-02
273 1   1.63905029177779555660e-02
273 2  -2.88992267396258675771e-02
273 3  -2.10665702107058101789e-02
274 5   3.81251121936270268020e-02
274 7   5.14802093771884738960e-02
274 8  -1.79593033360258454156e-02
274 6   3.44849881201178265488e-02
274 2  -3.65617856555327455648e-02
274 1   2.15914730233226423439e-02
274 3  -2.75638854992618122230e-02
274 4  -4.19820809516120857507e-02
275 8  -1.96122676437888651679e-02
275 7   5.47036827349707890922e-02
275 6   3.64254807942150510280e-02
275 4  -4.91559140010645601038e-02
275 5   4.09050880013678980207e-02
275 1   2.65708853976660136498e-02
275 2  -4.26410384586784763084e-02
275 3  -3.36281489050607312885e-02
276 8  -1.97389883614840118409e-02
276 7   5.28403943594347724755e-02
276 5   4.01156429871422567923e-02
276 6   3.48425195126830164472e-02
276 2  -4.68681599391474676408e-02
276 1   3.12776445316224546711e-02
276 3  -3.91714653776427806919e-02
276 4  -5.43172981560368223208e-02
277 7   4.60539756600446270607e-02
277 8  -1.83564679401547886650e-02
277 6   2.98489758670192478762e-02
277 5   3.58615061928069800423e-02
277 2  -4.90512431915129526461e-02
277 1   3.56634527072164711492e-02
277 3  -4.41184858964957030136e-02
277 4  -5.72549257428200536468e-02
278 7   3.49627480599136938877e-02
278 8  -1.56078055348035770605e-02
278 4  -5.78485299428827051682e-02
278 6   2.18727490139761227006e-02
278 5   2.85629894643728808601e-02
278 1   3.96833055976266654841e-02
278 2  -4.90833497126478834893e-02
278 3  -4.84079366988920956061e-02
279 8  -1.17484047273293881752e-02
279 7   2.05831790861766630862e-02
279 1   4.32959540724770358677e-02
279 6   1.16178271604031393971e-02
279 5   1.89171267925431936530e-02
279 2  -4.69470676948907927883e-02
279 3  -5.19936783383589257168e-02
279 4  -5.60738085305398856195e-02
280 5   7.83345807245443802314e-03
280 7   4.23668469753211290874e-03
280 8  -7.12241274796150420495e-03
280 6  -3.60531433828177521532e-11
280 2  -4.27153900482252213422e-02
280 1   4.64643274697357083758e-02
280 3  -5.48452660895989776990e-02
280 4  -5.20034188089465304605e-02
281 8  -2.13155774286479665625e-03
281 7  -1.25716753237241109231e-02
281 6  -1.19368845026625453043e-02
281 1   4.91559139908681330677e-02
281 5  -3.64964980182570829584e-03
281 2  -3.65488745101680764793e-02
281 3  -5.69480023895264850231e-02
281 4  -4.58040030115530183430e-02
282 2  -2.86892005855181285445e-02
282 7  -2.82914784850751589718e-02
282 8   2.80077411729616259847e-03
282 6  -2.31164398000005509581e-02
282 5  -1.44604667423123747078e-02
282 1   5.13430943158854832808e-02
282 3  -5.83024914192324245077e-02
282 4  -3.77293659495046077024e-02
283 7  -4.14695042408024308611e-02
283 8   7.26696462411500435780e-03
283 6  -3.25282792329952968879e-02
283 5  -2.35923897986409399075e-02
283 2  -1.94493857596545263733e-02
283 1   5.30034250149410482433e-02
283 3  -5.89237248073822481031e-02
283 4  -2.81100842128433128786e-02
284 7  -5.08834913100546862297e-02
284 8   1.09107174746290152417e-02
284 6  -3.93205359086113842570e-02
284 5  -3.01964243903098637778e-02
284 2  -9.20106039985759717459e-03
284 1   5.41198688482884202045e-02
284 3  -5.88397450145832986990e-02
284 4  -1.73399723260800851798e-02
285 7  -5.56548001672540482154e-02
285 8   1.34575541701491101232e-02
285 4  -5.85995993529064753552e-03
285 6  -4.28778802443133474909e-02
285 5  -3.36591723420939167855e-02
285 1   5.46809695914172722020e-02
285 2   1.64067861054442124154e-03
285 3  -5.80899485373838481150e-02
286 8   1.47375441600465419828e-02
286 7  -5.53296244172917020543e-02
286 1   5.46809695914172860798e-02
286 6  -4.28778802458668617525e-02
286 5  -3.36591723435359993499e-02
286 2   1.26342161112929507460e-02
286 3  -5.67231040297029517894e-02
286 4   5.85995990340588274181e-03
287 5  -3.01964243945779045597e-02
287 7  -4.99212767932947776295e-02
287 8   1.46982845041582731171e-02
287 6  -3.93205359132058687721e-02
287 2   2.33294753854222693124e-02
287 1   5.41198688482884618378e-02
287 3  -5.47951702662822087708e-02
287 4   1.73399722947813229867e-02
288 8   1.34070452552606748237e-02
288 7  -3.99096441318167530210e-02
288 6  -3.25282792404404733078e-02
288 1   5.30034250149411315101e-02
288 5  -2.35923898055592981549e-02
288 2   3.32863443529323940751e-02
288 3  -5.23670051838705102876e-02
288 4   2.81100841826824529579e-02
289 8   1.10419927293538555624e-02
289 6  -2.31164398099894426164e-02
289 7  -2.61978336388025354053e-02
289 5  -1.44604667515998378674e-02
289 1   5.13430943158855804254e-02
289 2   4.20927168673808568822e-02
289 3  -4.95020597922786464995e-02
289 4   3.77293659209842827118e-02
290 8   7.87340239388658116870e-03
290 6  -1.19368845147845761140e-02
290 7  -1.00299598047747465929e-02
290 5  -3.64964981310033622849e-03
290 2   4.93814102659994105804e-02
290 1   4.91559139908682302123e-02
290 3  -4.62641494639460318372e-02
290 4   4.58040029850950436430e-02
291 4   5.20034187848790949160e-02
291 6  -4.98123028346330490759e-11
291 7   7.12241275853052469014e-03
291 8   4.23668467196187427393e-03
291 5   7.83345805965248408176e-03
291 1   4.64643274697356598035e-02
291 2   5.48452660960957877334e-02
291 3  -4.27153900594616983688e-02
292 8   4.99787194403487899930e-04
292 6   1.16178271455702544768e-02
292 7   2.36947776444636944160e-02
292 5   1.89171267787391454707e-02
292 2   5.82498150921442817141e-02
292 1   4.32959540724771607678e-02
292 3  -3.89143777535381624189e-02
292 4   5.60738085090845411740e-02
293 4   5.78485299241573783235e-02
293 6   2.18727489986745675388e-02
293 7   3.81728279056016070458e-02
293 8  -2.97196152663427174204e-03
293 5   2.85629894501319703259e-02
293 1   3.96833055976267071174e-02
293 2   5.94429869756907119926e-02
293 3  -3.49146796620823443580e-02
294 8  -5.85028478368242611102e-03
294 6   2.98489758518742792637e-02
294 7   4.92311157472204996566e-02
294 4   5.72549257268462133408e-02
294 5   3.58615061787126779280e-02
294 1   3.56634527072165682937e-02
294 2   5.83614664228057009043e-02
294 3  -3.07636879361765369634e-02
295 5   4.01156429737730760299e-02
295 7   5.58545221992098814279e-02
295 8  -7.87447066517053297086e-03
295 6   3.48425194983156619188e-02
295 2   5.50334336490829190147e-02
295 1   3.12776445316224824267e-02
295 3  -2.65018734914311132611e-02
295 4   5.43172981427525528031e-02
296 7   5.74313995785298986307e-02
296 6   3.64254807812105368958e-02
296 5   4.09050879892682017758e-02
296 8  -8.87515015749362236319e-03
296 1   2.65708853976659477303e-02
296 2   4.95775758890321660566e-02
296 3  -2.21624576733917139082e-02
296 4   4.91559139903508454661e-02
297 8  -8.78916491306196492883e-03
297 6   3.44849881090081231139e-02
297 7   5.38098421751990116380e-02
297 5   3.81251121832941672340e-02
297 2   4.21984085450363213821e-02
297 1   2.15914730233226978551e-02
297 3  -1.77715016683223057947e-02
297 4   4.19820809433132727251e-02
298 4   3.30894965695194970268e-02
298 6   2.92332185589872367570e-02
298 7   4.53119169935082138911e-02
298 8  -7.66418829800743182934e-03
298 5   3.19965068681917416682e-02
298 1   1.63905029177778861771e-02
298 2   3.31780957093014833292e-02
298 3  -1.33483951250919549020e-02
299 8  -5.65272384912312176458e-03
299 6   2.11875858219007541516e-02
299 7   3.27045370948365263231e-02
299 5   2.30456832612952189354e-02
299 2   2.28651029429800499437e-02
299 1   1.10213440723592667747e-02
299 3  -8.90670802167124915638e-03
299 4   2.28422243181230950893e-02
300 4   1.16597887191607196139e-02
300 6   1.11229157791270100164e-02
300 7   1.71296321410735682966e-02
300 8  -2.99609829666079010776e-03
300 5   1.20567557348161095987e-02
300 1   5.53909132246574367059e-03
300 2   1.16601447694457648063e-02
300 3  -4.45535401381519369224e-03
301 8  -1.22676571223330368836e-03
301 6   1.31902605436828822272e-02
301 7   1.54463332430052353167e-02
301 4  -1.02698055222825799376e-02
301 5   1.13321634812088359312e-02
301 1   5.85995991897357224043e-03
301 2  -1.09338795737303068334e-02
301 3  -6.56055155918689597572e-03
302 5   2.15492436518378502330e-02
302 7   2.95085935502441727707e-02
302 8  -2.21234190506129028281e-03
302 6   2.52463711975460004810e-02
302 2  -2.14005879787766660483e-02
302 1   1.16597887193685897933e-02
302 3  -1.30096483876671331625e-02
302 4  -2.01191639998909120590e-02
303 8  -2.74292903401720513865e-03
303 7   4.09283189748478742898e-02
303 6   3.51374314028073328475e-02
303 4  -2.91448415395608277645e-02
303 5   2.96392108844513758881e-02
303 1   1.73399723092549987169e-02
303 2  -3.09522805635466906338e-02
303 3  -1.92387863065523710693e-02
304 8  -2.65677959445917780124e-03
304 7   4.86868031087223998576e-02
304 5   3.47866827120308294563e-02
304 6   4.20295770493728029771e-02
304 2  -3.91789724236147815506e-02
304 1   2.28422243184714171549e-02
304 3  -2.51452579902426941183e-02
304 4  -3.69773258423957140728e-02
305 7   5.20973562301540737973e-02
305 8  -1.86366340350632708756e-03
305 6   4.53617109731967796393e-02
305 5   3.64484646794075717313e-02
305 2  -4.57255175561297119713e-02
305 1   2.81100841956581082304e-02
305 3  -3.06347948654387865208e-02
305 4  -4.32959540808067686046e-02
306 7   5.08672688699599098716e-02
306 8  -3.57161179655679430090e-04
306 4  -4.78420408723407228346e-02
306 6   4.48962384438464923164e-02
306 5   3.44041021253088871723e-02
306 1   3.30894965699185250596e-02
306 2  -5.03063368159429938342e-02
306 3  -3.56239124860426373265e-02
307 8   1.78150564357744747856e-03
307 7   4.51238361907112875415e-02
307 1   3.77293659320730931372e-02
307 6   4.07401615902551542114e-02
307 5   2.87767987280096761149e-02
307 2  -5.27172897776476342968e-02
307 3  -4.00418788996109373257e-02
307 4  -5.04294688896351622764e-02
308 5   2.00227759708700679686e-02
308 7   3.54020898930707608732e-02
308 8   4.38859283427036391684e-03
308 6   3.33346051161740389301e-02
308 2  -5.28442026188107594198e-02
308 1   4.19820809437267683517e-02
308 3  -4.38322402940159797091e-02
308 4  -5.09523085256723823333e-02
309 8   7.23152505156393274333e-03
309 7   2.25953871496301257615e-02
309 6   2.34137407936681751774e-02
309 1   4.58040029940279258547e-02
309 5   8.89004272202421549909e-03
309 2  -5.06677011438335794802e-02
309 3  -4.69538555235123333809e-02
309 4  -4.93891546643235729297e-02
310 8   1.00299598206015760232e-02
310 6   1.19368845507904636216e-02
310 7   7.87340242620430778853e-03
310 5  -3.64964966592350647731e-03
310 1   4.91559139908682857234e-02
310 2  -4.62641494550513343587e-02
310 3  -4.93814102612777222623e-02
310 4  -4.58040030083402618932e-02
311 8   1.24823027531557450426e-02
311 6   9.27277816804681411336e-11
311 7  -7.42495310802056187466e-03
311 5  -1.64894313399109558593e-02
311 2  -3.98026543488497891454e-02
311 1   5.20034187915771051181e-02
311 3  -5.11054017364707957594e-02
311 4  -4.03436300877431514023e-02
312 4  -3.32315842114646806116e-02
312 6  -1.12652687267988747127e-02
312 7  -2.19138713297397091928e-02
312 8   1.42952091730591274860e-02
312 5  -2.84883934878411328173e-02
312 1   5.43172981436264162847e-02
312 2  -3.15382567354806631066e-02
312 3  -5.21316054718885535380e-02
313 8   1.52132909270204941948e-02
313 6  -2.07957713246467792989e-02
313 7  -3.42870440125895431516e-02
313 5  -3.85758568297190906904e-02
313 2  -2.18015876499691937940e-02
313 1   5.60738085137020281223e-02
313 3  -5.24800553181466941655e-02
313 4  -2.47590333732929240851e-02
314 4  -1.52728448000206875473e-02
314 6  -2.76946707846987098811e-02
314 7  -4.34365526030296295046e-02
314 8   1.50461889628981555778e-02
314 5  -4.58492692696844186817e-02
314 1   5.72549257284812804225e-02
314 2  -1.09854113386155909093e-02
314 3  -5.21835865818474284317e-02
315 8   1.36903791887944929762e-02
315 6  -3.13139358528381830937e-02
315 7  -4.85533841155359052744e-02
315 4  -5.16138416640627394061e-03
315 5  -4.96567565372622657383e-02
315 1   5.78485299270444161546e-02
315 2   4.71394463572380548883e-04
315 3  -5.12860084254615974930e-02
316 5  -4.96567565389010659449e-02
316 7  -4.92003988793540403268e-02
316 8   1.11435336278627918766e-02
316 6  -3.13139358533455550160e-02
316 2   1.21017658318189526984e-02
316 1   5.78485299270444092157e-02
316 3  -4.98399853205854573290e-02
316 4   5.16138414116699625889e-03
317 8   7.50992043704913278535e-03
317 7  -4.53511080337347244340e-02
317 6  -2.76946707861986524124e-02
317 4   1.52728447753134460863e-02
317 5  -4.58492692745339699978e-02
317 1   5.72549257284813220559e-02
317 2   2.34295539957978353474e-02
317 3  -4.79047176230324861512e-02
318 8   2.99613515643915723219e-03
318 7  -3.73907579850498369978e-02
318 5  -3.85758568375807464612e-02
318 6  -2.07957713270746982759e-02
318 2   3.39890189262340713938e-02
318 1   5.60738085137019587334e-02
318 3  -4.55435179033083017974e-02
318 4   2.47590333496197009810e-02
319 7  -2.60796774279844108257e-02
319 8  -2.10266204768564269473e-03
319 6  -1.12652687300538595361e-02
319 5  -2.84883934983931989826e-02
319 2   4.33439170941642346047e-02
319 1   5.43172981436265342459e-02
319 3  -4.28213822577992730967e-02
319 4   3.32315841892678459635e-02
320 7  -1.24823027394556917979e-02
320 8  -7.42495314112670990597e-03
320 4   4.03436300673895367752e-02
320 6   8.87800814617763340207e-11
320 5  -1.64894313527221385296e-02
320 1   5.20034187915771606292e-02
320 2   5.11054017393693382765e-02
320 3  -3.98026543554216225007e-02
321 8  -1.25716753497767466663e-02
321 7   2.13155775113956424613e-03
321 1   4.91559139908682649067e-02
321 6   1.19368845463110936217e-02
321 5  -3.64964968046864110529e-03
321 2   5.69480023942475349630e-02
321 3  -3.65488745190614833236e-02
321 4   4.58040029900970424581e-02
322 5   8.89004270633962298542e-03
322 7   1.64041192277487660189e-02
322 8  -1.71391757937150342184e-02
322 6   2.34137407888400025935e-02
322 2   6.06230288429228519886e-02
322 1   4.58040029940279466714e-02
322 3  -3.31168969411737984521e-02
322 4   4.93891546483529661482e-02
323 8  -2.07534343288052237908e-02
323 7   2.90148699612639664192e-02
323 6   3.33346051111936894640e-02
323 1   4.19820809437267683517e-02
323 5   2.00227759546878492092e-02
323 2   6.19688499436391593278e-02
323 3  -2.95573455816890810766e-02
323 4   5.09523085120287891336e-02
324 4   5.04294688782779970682e-02
324 7   3.88021577836010836404e-02
324 8  -2.31025302909540729279e-02
324 6   4.07401615853250145816e-02
324 5   2.87767987119930193640e-02
324 1   3.77293659320731486484e-02
324 2   6.09176254986277046499e-02
324 3  -2.59134639240502680224e-02
325 8  -2.39644505313911480859e-02
325 7   4.48699422438525868939e-02
325 5   3.44041021101141736294e-02
325 6   4.48962384391698721142e-02
325 2   5.74982143912114024298e-02
325 1   3.30894965699184973040e-02
325 3  -2.22203962163646066841e-02
325 4   4.78420408631476112848e-02
326 7   4.66699126408128897592e-02
326 8  -2.32277209740751298950e-02
326 6   4.53617109689638947634e-02
326 5   3.64484646656572167100e-02
326 2   5.18351385889850788113e-02
326 1   2.81100841956580978220e-02
326 3  -1.85049188325697756830e-02
326 4   4.32959540736004358519e-02
327 7   4.40514427330575691899e-02
327 8  -2.09029583587261730271e-02
327 4   3.69773258369706300797e-02
327 6   4.20295770457543363396e-02
327 5   3.47866827002874107189e-02
327 1   2.28422243184714969522e-02
327 2   4.41436439339900343892e-02
327 3  -1.47856207441701033301e-02
328 8  -1.71242282917340761517e-02
328 7   3.72748140097797914239e-02
328 1   1.73399723092550576975e-02
328 6   3.51374313999525261787e-02
328 5   2.96392108751962410351e-02
328 2   3.47210583028767227898e-02
328 3  -1.10735126133376694801e-02
328 4   2.91448415357110808543e-02
329 5   2.15492436454485167263e-02
329 7   2.69865189169158081750e-02
329 8  -1.21399895769541844165e-02
329 6   2.52463711955732347803e-02
329 2   2.39347991869834977874e-02
329 1   1.16597887193685360169e-02
329 3  -7.37302551168965685652e-03
329 4   2.01191639974380304112e-02
330 8  -6.29432273776262159182e-03
330 7   1.41589429721598828588e-02
330 6   1.31902605426760192314e-02
330 1   5.85995991897353581124e-03
330 5   1.13321634779478125354e-02
330 2   1.22075198141180681077e-02
330 3  -3.68334350326415382176e-03
330 4   1.02698055210911735891e-02
331 8   3.01096762510720018791e-03
331 6   1.50465749588545253529e-02
331 7   1.37449866919319273889e-02
331 5   1.05669683154927356028e-02
331 1   6.12069739692075540788e-03
331 2  -1.15609779407993013695e-02
331 3  -5.72163060572297797052e-03
331 4  -8.45937527875814145040e-03
332 8   6.05596677359295215010e-03
332 6   2.88955103707358162968e-02
332 7   2.63080681863068141513e-02
332 5   1.99822638984448915089e-02
332 2  -2.26325553198941722965e-02
332 1   1.21785881559044496802e-02
332 3  -1.13384511870339693002e-02
332 4  -1.65724227397168223652e-02
333 4  -2.40069932666321581016e-02
333 6   4.04571437370707179260e-02
333 7   3.66125190847036222075e-02
333 8   9.15320784251186583824e-03
333 5   2.72017193840585896902e-02
333 1   1.81115101201112307927e-02
333 2  -3.27455328256325908787e-02
333 3  -1.67486144841403269967e-02
334 8   1.22912300409005782742e-02
334 6   4.88478820522688372829e-02
334 7   4.37824584246236103713e-02
334 5   3.13862983791859950777e-02
334 2  -4.14702849104262444291e-02
334 1   2.38585834816492231569e-02
334 3  -2.18560910993810392222e-02
334 4  -3.04587146686454285360e-02
335 4  -3.56634527135512510720e-02
335 6   5.34694314740619125459e-02
335 7   4.72203513288006193616e-02
335 8   1.54187913824786020089e-02
335 5   3.19808679223067340858e-02
335 1   2.93608354907869718853e-02
335 2  -4.84345087786127101448e-02
335 3  -2.65733135285695955263e-02
336 8   1.84398829788159183962e-02
336 6   5.40619157786650372799e-02
336 7   4.66593551843818080127e-02
336 4  -3.94081248142830117831e-02
336 5   2.87668740501709242763e-02
336 1   3.45618055961711342916e-02
336 2  -5.33386215600090071720e-02
336 3  -3.08235140899337199671e-02
337 5   2.18840709508775731196e-02
337 7   4.21858098201821213324e-02
337 8   2.12147214630437341842e-02
337 6   5.07260295359498042389e-02
337 2  -5.59681737160080197691e-02
337 1   3.94081248064851522028e-02
337 3  -3.45426738324317930684e-02
337 4  -4.15394236550726200785e-02
338 8   2.35669484094313125278e-02
338 7   3.42298901166135510765e-02
338 6   4.39122113529154742273e-02
338 4  -4.19700936109682412600e-02
338 5   1.18192934027071608338e-02
338 1   4.38500633285207122580e-02
338 2  -5.62027689486359616211e-02
338 3  -3.76810148866700625470e-02
339 8   2.52966065611892193532e-02
339 7   2.35253368743542565222e-02
339 5  -6.36714017491026452317e-04
339 6   3.43778465564798449416e-02
339 2  -5.40211239905716081311e-02
339 1   4.78420408621504020252e-02
339 3  -4.02039867422689656262e-02
339 4  -4.06825030033722001566e-02
340 7   1.10419927646089148510e-02
340 8   2.61978336608024026111e-02
340 6   2.31164399607609385989e-02
340 5  -1.44604664787516164204e-02
340 2  -4.95020597860418923308e-02
340 1   5.13430943158855249142e-02
340 3  -4.20927168645791813240e-02
340 4  -3.77293659430362193774e-02
341 7  -2.10266201154400310044e-03
341 8   2.60796774481078380559e-02
341 4  -3.32315842081722934154e-02
341 6   1.12652690403397814922e-02
341 5  -2.84883933591840651789e-02
341 1   5.43172981436263815902e-02
341 2  -4.28213822538033722642e-02
341 3  -4.33439170931921927132e-02
342 8   2.47880435060939610659e-02
342 7  -1.47448803783848583077e-02
342 1   5.67341329893772255977e-02
342 6   2.27798886376049432540e-10
342 5  -4.15224917527467415890e-02
342 2  -3.42447792289690064460e-02
342 3  -4.39692585431655305617e-02
342 4  -2.73732975114586614407e-02
343 5  -5.24392993119363534649e-02
343 7  -2.57796735985673618197e-02
343 8   2.22265813605774346928e-02
343 6  -9.57405472546326609395e-03
343 2  -2.41170234144557210643e-02
343 1   5.85687988571376647040e-02
343 3  -4.39942483962906874528e-02
343 4  -2.03943447985629536245e-02
344 8   1.83743166884497884095e-02
344 7  -3.42599282038526936622e-02
344 6  -1.65240588613758225545e-02
344 1   5.98024695924188817719e-02
344 5  -6.02922006106276497928e-02
344 2  -1.28479225511026542983e-02
344 3  -4.34566611892984802634e-02
344 4  -1.25804452135266191248e-02
345 6  -2.01757724058176032833e-02
345 7  -3.94806149629179509164e-02
345 8   1.32980523219639479998e-02
345 5  -6.43976909212616577260e-02
345 2  -8.95591339046195250920e-04
345 1   6.04224860640644595433e-02
345 3  -4.24045942037665282709e-02
345 4  -4.25150072344338946645e-03
346 6  -2.01757724052885785426e-02
346 7  -4.10404750843396462501e-02
346 8   7.15797167242108751256e-03
346 5  -6.43976909230979388532e-02
346 2   1.12522705480673050615e-02
346 1   6.04224860640644456655e-02
346 4   4.25150070565768339881e-03
346 3  -4.08942306554830603549e-02
347 4   1.25804451962088521128e-02
347 7  -3.88756477111609419217e-02
347 8   2.05450363505185919352e-04
347 6  -1.65240588598093221528e-02
347 5  -6.02922006160608314751e-02
347 1   5.98024695924190344276e-02
347 2   2.30983282172668204224e-02
347 3  -3.89874050055743492926e-02
348 7  -3.32622843919251481859e-02
348 6  -9.57405472292053791317e-03
348 8  -7.22723511635733461417e-03
348 5  -5.24392993207439053749e-02
348 2   3.41559725052083471009e-02
348 1   5.85687988571375120483e-02
348 4   2.03943447821522440278e-02
348 3  -3.67490714503993093354e-02
349 4   2.73732974963347315545e-02
349 7  -2.47880434914176071837e-02
349 8  -1.47448804136383771618e-02
349 6   2.31214656698152994881e-10
349 5  -4.15224917645677440992e-02
349 1   5.67341329893771770254e-02
349 2   4.39692585422508316895e-02
349 3  -3.42447792305433929005e-02
350 8  -2.19138713619494093776e-02
350 7  -1.42952091648473039037e-02
350 6   1.12652690444900085293e-02
350 4   3.32315841946300080667e-02
350 5  -2.84883933735352069816e-02
350 1   5.43172981436262983235e-02
350 2   5.21316054728593950007e-02
350 3  -3.15382567394765639390e-02
351 8  -2.82914785100712475041e-02
351 7  -2.80077411444321208375e-03
351 5  -1.44604664950444064542e-02
351 6   2.31164399654753723035e-02
351 2   5.83024914220331980097e-02
351 1   5.13430943158855596087e-02
351 3  -2.86892005917545080129e-02
351 4   3.77293659312760570890e-02
352 7   8.59907477326804850493e-03
352 8  -3.34576701261865561143e-02
352 5  -6.36714035058811786416e-04
352 6   3.43778465615650133391e-02
352 2   6.22214597059599569540e-02
352 1   4.78420408621504783531e-02
352 3  -2.57513560813906992875e-02
352 4   4.06825029934866980175e-02
353 6   4.39122113581620412970e-02
353 7   1.88312157184299285018e-02
353 8  -3.70468858024213809621e-02
353 5   1.18192933845809936000e-02
353 2   6.37188622018923372936e-02
353 1   4.38500633285206983802e-02
353 4   4.19700936029456100895e-02
353 3  -2.27709622351060965439e-02
354 4   4.15394236488047657874e-02
354 7   2.69451466641831387239e-02
354 8  -3.87771327785955202683e-02
354 6   5.07260295411414499633e-02
354 5   2.18840709329356647439e-02
354 1   3.94081248064852979196e-02
354 2   6.27228992190208417545e-02
354 3  -1.97856184975954349503e-02
355 7   3.22006578104102741955e-02
355 6   5.40619157835901253950e-02
355 8  -3.84739177319023545332e-02
355 5   2.87668740331469136029e-02
355 2   5.92626666879512709052e-02
355 1   3.45618055961711065360e-02
355 4   3.94081248095879965732e-02
355 3  -1.68236116511133772244e-02
356 4   3.56634527101945680849e-02
356 7   3.41355605051644264702e-02
356 8  -3.60868981106269234860e-02
356 6   5.34694314785169461102e-02
356 5   3.19808679069012377627e-02
356 1   2.93608354907870551520e-02
356 2   5.34670848113172544891e-02
356 3  -1.39037216365285858782e-02
357 8  -3.16976992571426988143e-02
357 7   3.26072670236454004167e-02
357 6   4.88478820560717535981e-02
357 4   3.04587146663692943938e-02
357 5   3.13862983660297342747e-02
357 1   2.38585834816491502985e-02
357 2   4.55597508069731094160e-02
357 3  -1.10355043347960292410e-02
358 8  -2.55180493288237469907e-02
358 7   2.78044407538110202593e-02
358 5   2.72017193736905950330e-02
358 6   4.04571437400659539296e-02
358 2   3.58499251313716751910e-02
358 1   1.81115101201113140594e-02
358 3  -8.22002894051960739108e-03
358 4   2.40069932651859434258e-02
359 7   2.02277066858134249583e-02
359 8  -1.78781729308991887972e-02
359 6   2.88955103728024131904e-02
359 4   1.65724227388864900345e-02
359 5   1.99822638912879740891e-02
359 1   1.21785881559044618233e-02
359 2   2.47200187683307530395e-02
359 3  -5.45102815860016437499e-03
360 8  -9.20618812256625805579e-03
360 7   1.06412727349562922369e-02
360 5   1.05669683118407419647e-02
360 6   1.50465749599090394678e-02
360 2   1.26100923317826150993e-02
360 1   6.12069739692076928567e-03
360 3  -2.71640188300228046722e-03
360 4   8.45937527838392863688e-03
361 7   1.14021133473185438956e-02
361 8   6.81522964256533678173e-03
361 6   1.65660364681573871182e-02
361 5   9.87579643897762600446e-03
361 2  -1.20855377962076349085e-02
361 1   6.31862823695205060720e-03
361 3  -4.69456377483138797418e-03
361 4  -6.30261721742282447767e-03
362 7   2.18761028762437630124e-02
362 8   1.34686392622663676094e-02
362 4  -1.23472045454746087029e-02
362 6   3.18851053665796940750e-02
362 5   1.85732762121983453751e-02
362 1   1.25724187977041858277e-02
362 2  -2.36643024161567495922e-02
362 3  -9.29336589431954511464e-03
363 8   1.97942843499125838147e-02
363 7   3.05741552191876042599e-02
363 1   1.86971993283552434528e-02
363 6   4.48218166890332544994e-02
363 5   2.50249957673293159377e-02
363 2  -3.42503910689325521965e-02
363 3  -1.37035756497448004548e-02
363 4  -1.78862958687736085805e-02
364 5   2.83750596396901942631e-02
364 7   3.68019089839357327332e-02
364 8   2.56191262331345454006e-02
364 6   5.44537301885723440398e-02
364 2  -4.33987860358106408709e-02
364 1   2.46301212924952897532e-02
364 3  -1.78381143864278744748e-02
364 4  -2.26931201377582568435e-02
365 8   3.07622343074317045053e-02
365 7   4.00779078941654390289e-02
365 6   6.01532525949879937066e-02
365 1   3.03103048822368076332e-02
365 5   2.80603348309937349059e-02
365 2  -5.07236930054487389352e-02
365 3  -2.16182613253608942039e-02
365 4  -2.65708854021035889570e-02
366 6   6.16425759314243801312e-02
366 7   4.01740857853275790124e-02
366 8   3.50369157839543546307e-02
366 5   2.38647276768881068387e-02
366 2  -5.59144510600828523184e-02
366 1   3.56794637274291184803e-02
366 3  -2.49759472589845960000e-02
366 4  -2.93608354962789017129e-02
367 6   5.90166448469634369323e-02
367 7   3.71337205623294488999e-02
367 8   3.82561698286695908711e-02
367 5   1.59415179074017671068e-02
367 2  -5.87483617706213226417e-02
367 1   4.06825029926895787025e-02
367 4  -3.09487495356317796058e-02
367 3  -2.78556517511921696018e-02
368 4  -3.12696181328147998491e-02
368 7   3.12653317267386696154e-02
368 8   4.02414435860114008681e-02
368 6   5.27320721604937966975e-02
368 5   4.80167559384143179807e-03
368 1   4.52680847249702991708e-02
368 2  -5.90999110410571903973e-02
368 3  -3.02158352980731008397e-02
369 7   2.31131685250183099845e-02
369 6   4.35630436795639286451e-02
369 8   4.08342307035337720444e-02
369 5  -8.73079181176408813947e-03
369 2  -5.69460050860384828231e-02
369 1   4.93891546504271680695e-02
369 4  -3.03103048897489131541e-02
369 3  -3.20298564448502215418e-02
370 4  -2.81100842033011714960e-02
370 7   1.34070452893715989784e-02
370 8   3.99096441604319465690e-02
370 6   3.25282794881777484464e-02
370 5  -2.35923894270829229147e-02
370 1   5.30034250149410898767e-02
370 2  -5.23670051804430922160e-02
370 3  -3.32863443520621735128e-02
371 8   3.73907580120933988321e-02
371 7   2.99613519131334627224e-03
371 6   2.07957717455766119552e-02
371 4  -2.47590333668665958655e-02
371 5  -3.85758565916664020179e-02
371 1   5.60738085137019587334e-02
371 2  -4.55435179019803432210e-02
371 3  -3.39890189271582557340e-02
372 8   3.32622844136458914455e-02
372 7  -7.22723508252632370480e-03
372 5  -5.24392992020191184288e-02
372 6   9.57405530019633625727e-03
372 2  -3.67490714512687943749e-02
372 1   5.85687988571378728708e-02
372 3  -3.41559725079326748087e-02
372 4  -2.03943447953979853371e-02
373 7  -1.64068689321598057407e-02
373 8   2.75820603703090458381e-02
373 6   3.51889833073758363755e-10
373 4  -1.51947093518195221196e-02
373 5  -6.40187393615877370356e-02
373 1   6.04627940680811104546e-02
373 2  -2.63389771595584701314e-02
373 3  -3.38184483139250258166e-02
374 8   2.04888777710688675671e-02
374 7  -2.37978945993584378726e-02
374 5  -7.23337730667280853769e-02
374 6  -6.96656707134088795663e-03
374 2  -1.47358315818193561647e-02
374 1   6.17363591926974805690e-02
374 3  -3.30191706102603288464e-02
374 4  -9.37300072210307810838e-03
375 7  -2.88311107132350231963e-02
375 8   1.22054007777160217207e-02
375 6  -1.06317399259735975714e-02
375 5  -7.66766561780877070609e-02
375 2  -2.41225222270262211477e-03
375 1   6.23764257294104271234e-02
375 3  -3.18102989566969307500e-02
375 4  -3.16756034155251612466e-03
376 7  -3.11607435023115546258e-02
376 8   3.03526236795498933693e-03
376 4   3.16756033154684795566e-03
376 6  -1.06317399245030273780e-02
376 5  -7.66766561801160845269e-02
376 1   6.23764257294104687568e-02
376 2   1.01284466816443877862e-02
376 3  -3.02510933388187852611e-02
377 8  -6.64611091379641808624e-03
377 7  -3.06914175261607524714e-02
377 1   6.17363591926975915913e-02
377 6  -6.96656706698696535224e-03
377 5  -7.23337730727287991916e-02
377 2   2.23728474446085977279e-02
377 3  -2.84053878178199444016e-02
377 4   9.37300071249650736116e-03
378 5  -6.40187393713190083799e-02
378 7  -2.75820603571968574197e-02
378 8  -1.64068689633156891694e-02
378 6   3.58949279180124306516e-10
378 2   3.38184483095235813299e-02
378 1   6.04627940680809855545e-02
378 3  -2.63389771565393088215e-02
378 4   1.51947093429807764120e-02
379 8  -2.57796736313235450022e-02
379 7  -2.22265813544631693488e-02
379 6   9.57405530967459471314e-03
379 1   5.85687988571378520541e-02
379 5  -5.24392992150794837181e-02
379 2   4.39942483935651107441e-02
379 3  -2.41170234135837033285e-02
379 4   2.03943447876368498528e-02
380 4   2.47590333604066938078e-02
380 7  -1.52132909272155499719e-02
380 8  -3.42870440423750019732e-02
380 6   2.07957717570851456645e-02
380 5  -3.85758566075208725321e-02
380 1   5.60738085137019587334e-02
380 2   5.24800553172212122521e-02
380 3  -2.18015876512954176469e-02
381 8  -4.14695042633493951567e-02
381 7  -7.26696462938670236648e-03
381 5  -2.35923894450832186132e-02
381 6   3.25282795012452885519e-02
381 2   5.89237248082517747760e-02
381 1   5.30034250149414021269e-02
381 3  -1.94493857630806260550e-02
381 4   2.81100841982702999433e-02
382 7   8.20971202466105171545e-04
382 8  -4.69145921895699272164e-02
382 6   4.35630436936530404668e-02
382 5  -8.73079183117293593230e-03
382 2   6.30556261103061843620e-02
382 1   4.93891546504270570472e-02
382 3  -1.71098572531570881916e-02
382 4   3.03103048861680587911e-02
383 7   8.26759217877934791951e-03
383 8  -5.02846066559738194557e-02
383 4   3.12696181306021392388e-02
383 6   5.27320721750276014128e-02
383 5   4.80167557381663487326e-03
383 1   4.52680847249703616209e-02
383 2   6.46997404821658961271e-02
383 3  -1.48236220236012353896e-02
384 8  -5.13409606286917286067e-02
384 7   1.43719689483355721193e-02
384 1   4.06825029926895925803e-02
384 6   5.90166448613483468622e-02
384 5   1.59415178875795433833e-02
384 2   6.37809378002784921335e-02
384 3  -1.26213834139055503664e-02
384 4   3.09487495346145828623e-02
385 5   2.38647276580802904233e-02
385 7   1.85801908902863792405e-02
385 8  -4.99631778413521590587e-02
385 6   6.16425759450719215615e-02
385 2   6.03281326374797075007e-02
385 1   3.56794637274291462359e-02
385 3  -1.05233165945626382792e-02
385 4   2.93608354962152477696e-02
386 8  -4.61609086672569168819e-02
386 7   2.05359263112152370945e-02
386 6   6.01532526073381701437e-02
386 1   3.03103048822369255944e-02
386 5   2.80603348139741720635e-02
386 2   5.44731897842741438764e-02
386 3  -8.53896073131704159975e-03
386 4   2.65708854027012289500e-02
387 6   5.44537301991181235672e-02
387 7   2.01118917337286609581e-02
387 8  -4.00778235815946182186e-02
387 5   2.83750596251551613636e-02
387 2   4.64456231045522402456e-02
387 1   2.46301212924952793448e-02
387 3  -6.66761196583814073902e-03
387 4   2.26931201387124761859e-02
388 6   4.48218166973440787504e-02
388 7   1.74193935673338448633e-02
388 8  -3.19868314627458766308e-02
388 5   2.50249957558736253749e-02
388 2   3.65633037555946269204e-02
388 1   1.86971993283552746778e-02
388 4   1.78862958697906179739e-02
388 3  -4.89919308418755670292e-03
389 4   1.23472045463055134923e-02
389 7   1.27951543088808926407e-02
389 8  -2.22767175851566641420e-02
389 6   3.18851053723158833764e-02
389 5   1.85732762042924576251e-02
389 1   1.25724187977041233777e-02
389 2   2.52195571061627349385e-02
389 3  -3.21555564050009928811e-03
390 7   6.76675296460114029246e-03
390 6   1.65660364710846462477e-02
390 8  -1.14309491321126378144e-02
390 5   9.87579643494349360133e-03
390 2   1.28671754714502484251e-02
390 1   6.31862823695203933150e-03
390 4   6.30261721788514302917e-03
390 3  -1.59215209865198274036e-03
391 4  -3.88782926672472019941e-03
391 7   8.47474116749210790167e-03
391 8   9.87719238248656664081e-03
391 6   1.76430140937637487675e-02
391 5   9.35577945607156229169e-03
391 1   6.45172140080667224499e-03
391 2  -1.24980735184306024355e-02
391 3  -3.52289002969655845598e-03
392 8   1.94223049860624032148e-02
392 7   1.63179558400502258686e-02
392 6   3.40053243262005908121e-02
392 4  -7.61649034649501503746e-03
392 5   1.75158932802184988398e-02
392 1   1.28372394094474293752e-02
392 2  -2.44770783926374357886e-02
392 3  -6.96103896408226206077e-03
393 8   2.83102225369797171062e-02
393 7   2.29500734381643117787e-02
393 5   2.33978076837945761501e-02
393 6   4.79202312854418929766e-02
393 2  -3.54392726031118390773e-02
393 1   1.90910299701507815695e-02
393 3  -1.02325646069076556244e-02
393 4  -1.10333314166309072457e-02
394 7   2.78909140959105114610e-02
394 6   5.84386233422419867911e-02
394 5   2.61348404024402264367e-02
394 8   3.62300818383501574416e-02
394 1   2.51489207290192529065e-02
394 2  -4.49286934864887715912e-02
394 3  -1.32611917800309290355e-02
394 4  -1.39984666022796334917e-02
395 8   4.28931364639984213927e-02
395 6   6.49126732261515598799e-02
395 7   3.07984859042177878952e-02
395 5   2.51590114362482339394e-02
395 2  -5.25498984656768072798e-02
395 1   3.09487495292216294174e-02
395 3  -1.59787833535077299085e-02
395 4  -1.63905029205641018797e-02
396 4  -1.81115101235603571939e-02
396 6   6.70520055212309451509e-02
396 7   3.14958008125589411508e-02
396 8   4.80413225504357013773e-02
396 5   2.02563912049960985484e-02
396 1   3.64310022788414955563e-02
396 2  -5.79842257761210566613e-02
396 3  -1.83275566375248402662e-02
397 8   5.14564736035563186078e-02
397 6   6.49472166869053402216e-02
397 7   2.99834359584144755084e-02
397 5   1.15898361315057013554e-02
397 2  -6.10029087409269879516e-02
397 1   4.15394236459967619579e-02
397 3  -2.02619002781479866371e-02
397 4  -1.90910299741682588925e-02
398 4  -1.92889608145975395559e-02
398 6   5.90586222628555479464e-02
398 7   2.64368386241251966673e-02
398 8   5.29699309216804317679e-02
398 5  -3.13005638575648945272e-04
398 1   4.62215943146692398447e-02
398 2  -6.14765059947962391740e-02
398 3  -2.17497229037035104404e-02
399 8   5.24720939352787546506e-02
399 6   5.01712935818012309430e-02
399 7   2.11887301827189261649e-02
399 4  -1.86971993329695211628e-02
399 5  -1.46053484481039348025e-02
399 1   5.04294688778217300995e-02
399 2  -5.93802609205491410682e-02
399 3  -2.27732836304987383558e-02
400 5  -3.01964239400682454839e-02
400 7   1.46982845334011676813e-02
400 8   4.99212768283315080908e-02
400 6   3.93205362310937167614e-02
400 2  -5.47951702656549535786e-02
400 1   5.41198688482883438766e-02
400 3  -2.33294753863715828568e-02
400 4  -1.73399723138426588298e-02
401 8   4.53511080675201849743e-02
401 7   7.50992046673122463918e-03
401 6   2.76946712826826972609e-02
401 4  -1.52728447908183542076e-02
401 5  -4.58492689516548923567e-02
401 1   5.72549257284811902169e-02
401 2  -4.79047176243095687576e-02
401 3  -2.34295539984641816578e-02
402 8   3.88756477398003313928e-02
402 7   2.05450391843746177530e-04
402 5  -6.02922004200979050337e-02
402 6   1.65240595220471665761e-02
402 2  -3.89874050087663445718e-02
402 1   5.98024695924188817719e-02
402 3  -2.30983282216041321822e-02
402 4  -1.25804452075362060981e-02
403 7  -6.64611088840077850193e-03
403 8   3.06914175462294283592e-02
403 6   6.96656786859571348219e-03
403 5  -7.23337729858982286801e-02
403 2  -2.84053878228036904563e-02
403 1   6.17363591926973556689e-02
403 3  -2.23728474504466118278e-02
403 4  -9.37300071925375316573e-03
404 7  -1.25366036629522559220e-02
404 8   2.10756458441330625508e-02
404 4  -5.78182448015599186747e-03
404 6   4.48255411015744328453e-10
404 5  -8.09706924815443845889e-02
404 1   6.30367502050626637988e-02
404 2  -1.65896781444351791579e-02
404 3  -2.13006438842579803872e-02
405 8   1.03802225967029645298e-02
405 7  -1.70604083765684907958e-02
405 1   6.36902988580283629938e-02
405 6  -3.66862526580490717551e-03
405 5  -8.54788013540094399056e-02
405 2  -4.02252178969530332919e-03
405 3  -1.99376035836109320731e-02
405 4  -1.95393966739566002713e-03
406 5  -8.54788013562196719031e-02
406 7  -1.99461364494730973573e-02
406 8  -9.78874840824487963548e-04
406 6  -3.66862526356152808191e-03
406 2   8.78232959085790097775e-03
406 1   6.36902988580285295273e-02
406 3  -1.83455554556885939987e-02
406 4   1.95393966504005733506e-03
407 8  -1.25366036842341870006e-02
407 7  -2.10756458349729974833e-02
407 6   4.54892239878139926238e-10
407 1   6.30367502050625944099e-02
407 5  -8.09706924880853884385e-02
407 2   2.13006438771994217884e-02
407 3  -1.65896781379056834638e-02
407 4   5.78182447812920601027e-03
408 4   9.37300071785231864174e-03
408 7  -2.04888777687858222865e-02
408 8  -2.37978946266261537357e-02
408 6   6.96656787935744353096e-03
408 5  -7.23337729965032594226e-02
408 1   6.17363591926976193469e-02
408 2   3.30191706044227137329e-02
408 3  -1.47358315768354279640e-02
409 8  -3.42599282329076049169e-02
409 7  -1.83743166929750470495e-02
409 5  -6.02922004343317621822e-02
409 6   1.65240595364940269507e-02
409 2   4.34566611849611927898e-02
409 1   5.98024695924190344276e-02
409 3  -1.28479225479091706263e-02
409 4   1.25804452069984609025e-02
410 7  -1.50461889734192812151e-02
410 8  -4.34365526292508560835e-02
410 6   2.76946713002236798162e-02
410 5  -4.58492689689351320959e-02
410 2   5.21835865791820119330e-02
410 1   5.72549257284812387891e-02
410 3  -1.09854113373373876716e-02
410 4   1.52728447912943814113e-02
411 7  -1.09107174897834138111e-02
411 8  -5.08834913291274504310e-02
411 4   1.73399723153906601403e-02
411 6   3.93205362510101463780e-02
411 5  -3.01964239596872012494e-02
411 1   5.41198688482883855100e-02
411 2   5.88397450136335098403e-02
411 3  -9.20106040048403704679e-03
412 8  -5.62228226285296367459e-02
412 7  -6.42472887044469830042e-03
412 1   5.04294688778217439773e-02
412 6   5.01712936032756295912e-02
412 5  -1.46053484692580167609e-02
412 2   6.31490386514657192629e-02
412 3  -7.53901528939076182728e-03
412 4   1.86971993355404021708e-02
413 5  -3.13005660399257566468e-04
413 7  -2.05057920014320872043e-03
413 8  -5.91651513920722696427e-02
413 6   5.90586222850083969460e-02
413 2   6.49308139488847246845e-02
413 1   4.62215943146693925003e-02
413 3  -6.03329394320992890011e-03
413 4   1.92889608180451359309e-02
414 8  -5.95279510146583187846e-02
414 7   1.78833759605876579935e-03
414 6   6.49472167088310792238e-02
414 1   4.15394236459966301189e-02
414 5   1.15898361099039046151e-02
414 2   6.41073010436973428350e-02
414 3  -4.70674314651281164301e-03
414 4   1.90910299782570506977e-02
415 8  -5.72487289889803477316e-02
415 6   6.70520055420328886520e-02
415 7   4.74733255136423198950e-03
415 5   2.02563911844999486322e-02
415 1   3.64310022788415371897e-02
415 2   6.07068471610397522586e-02
415 3  -3.57050129537263283286e-03
415 4   1.81115101279918644384e-02
416 8  -5.23919549171139725674e-02
416 6   6.49126732449748777842e-02
416 7   6.59173317654486359135e-03
416 5   2.51590114176998523587e-02
416 2   5.48628111523627240431e-02
416 1   3.09487495292216224785e-02
416 3  -2.62398538042687328245e-03
416 4   1.63905029249935829672e-02
417 4   1.39984666063577567474e-02
417 6   5.84386233583154626747e-02
417 7   7.21690420113289387433e-03
417 8  -4.51490665499656371185e-02
417 5   2.61348403865995643214e-02
417 1   2.51489207290191557620e-02
417 2   4.68081638602093411117e-02
417 3  -1.85539817416119552120e-03
418 8  -3.58313109642963284474e-02
418 6   4.79202312981076780640e-02
418 7   6.65520276882936630963e-03
418 5   2.33978076713112700946e-02
418 2   3.68660147538485971630e-02
418 1   1.90910299701508336112e-02
418 3  -1.24272989859725273981e-03
418 4   1.10333314200269077404e-02
419 4   7.61649034892898819937e-03
419 6   3.40053243349433612086e-02
419 7   5.06933831438705680833e-03
419 8  -2.48556517125996349893e-02
419 5   1.75158932716026095877e-02
419 1   1.28372394094474952947e-02
419 2   2.54364520146807999990e-02
419 3  -7.55208042551352141426e-04
420 8  -1.27244427656368619406e-02
420 6   1.76430140982257802063e-02
420 7   2.73289650747223162100e-03
420 4   3.88782926799448053795e-03
420 5   9.35577945167425858997e-03
420 1   6.45172140080665923456e-03
420 2   1.29802341397786871052e-02
420 3  -3.55130342027126072978e-04
421 5   9.07729914192593849431e-03
421 7   5.05462271992978412483e-03
421 8   1.19609107103352766549e-02
421 6   1.82014108899718300705e-02
421 2  -1.27897581397278907456e-02
421 1   6.51861117252048195142e-03
421 3  -2.25558022921671600530e-03
421 4  -1.31387312909545710474e-03
422 8   2.34565716168625704174e-02
422 7   9.80613967117870133361e-03
422 5   1.69503892198061487107e-02
422 6   3.51049869950747495118e-02
422 2  -2.50534026205287939371e-02
422 1   1.29703325733011715082e-02
422 3  -4.43891989280077812335e-03
422 4  -2.57395613792876006704e-03
423 6   4.95281194845716005171e-02
423 7   1.39726750272517498408e-02
423 8   3.40385394234884661180e-02
423 5   2.25293263982850010263e-02
423 2  -3.62863845863016926119e-02
423 1   1.92889608101788762040e-02
423 4  -3.72866108007794197499e-03
423 3  -6.48052967679989093408e-03
424 4  -4.73071419955122755147e-03
424 7   1.73131346367992496049e-02
424 8   4.32915013254418362676e-02
424 6   6.05081218705752418852e-02
424 5   2.49421775922072791465e-02
424 1   2.54096582069589863040e-02
424 2  -4.60264016578595461238e-02
424 3  -8.31631225082466243870e-03
425 7   1.96435442517575338528e-02
425 6   6.73868326518121257829e-02
425 8   5.08486348471606786070e-02
425 5   2.36186918585041157048e-02
425 2  -5.38723495076241926105e-02
425 1   3.12696181257147917676e-02
425 4  -5.53909132389700763210e-03
425 3  -9.88998646331543801447e-03
426 4  -6.12069739865840015819e-03
426 7   2.08489121249720299467e-02
426 8   5.64055254100585198862e-02
426 6   6.98674022621095791585e-02
426 5   1.83461852639593830938e-02
426 1   3.68087094478831006183e-02
426 2  -5.95007672001309495524e-02
426 3  -1.11551978051596077657e-02
427 8   5.97321727541261296435e-02
427 7   2.08897331056583854259e-02
427 6   6.80380924820697396971e-02
427 4  -6.45172140278590326018e-03
427 5   9.29247664383088534112e-03
427 1   4.19700936009124586645e-02
427 2  -6.26791027770548930809e-02
427 3  -1.20772307266151165961e-02
428 8   6.06826365258839317551e-02
428 7   1.98027031931119618102e-02
428 5  -3.00626462720625722835e-03
428 6   6.23609405731684537932e-02
428 2  -6.32752557555569389303e-02
428 1   4.67008077989311057299e-02
428 3  -1.26342546079559799738e-02
428 4  -6.51861117463412454570e-03
429 7   1.76956981001813104526e-02
429 8   5.92019051048335853693e-02
429 6   5.36263611272586454559e-02
429 4  -6.31862823905622681547e-03
429 5  -1.76916774818037803030e-02
429 1   5.09523085126011784918e-02
429 2  -6.12630056453134994032e-02
429 3  -1.28180541723545548399e-02
430 8   5.53296244578145995918e-02
430 7   1.47375441815993119682e-02
430 5  -3.36591718494825900554e-02
430 6   4.28778806005715995564e-02
430 2  -5.67231040317218160318e-02
430 1   5.46809695914173346520e-02
430 3  -1.26342161138403470677e-02
430 4  -5.85995992089901468480e-03
431 7   1.11435336493888679371e-02
431 8   4.92003989189182325270e-02
431 6   3.13139363905890685813e-02
431 5  -4.96567561760504275203e-02
431 2  -4.98399853242663462560e-02
431 1   5.78485299270444369713e-02
431 3  -1.21017658359654067118e-02
431 4  -5.16138415496280884148e-03
432 7   7.15797169220467981166e-03
432 8   4.10404751189529029554e-02
432 4  -4.25150071515193340305e-03
432 6   2.01757731117915527219e-02
432 5  -6.43976906870965398744e-02
432 1   6.04224860640645566878e-02
432 2  -4.08942306607468289426e-02
432 3  -1.12522705537174971813e-02
433 8   3.11607435284546631371e-02
433 7   3.03526238447109162483e-03
433 1   6.23764257294103854901e-02
433 6   1.06317407732916622415e-02
433 5  -7.66766560534145602546e-02
433 2  -3.02510933454676472776e-02
433 3  -1.01284466885840519074e-02
433 4  -3.16756033636135525544e-03
434 5  -8.54788013100970522906e-02
434 7  -9.78874828659962283386e-04
434 8   1.99461364647225553037e-02
434 6   3.66862621608352382219e-03
434 2  -1.83455554634185911966e-02
434 1   6.36902988580286127940e-02
434 3  -8.78232959877102946356e-03
434 4  -1.95393966503500495294e-03
435 8   7.84166161898859452595e-03
435 7  -4.66452152904765424135e-03
435 6   5.03242755029726473068e-10
435 1   6.43506233336758326491e-02
435 5  -9.00716844431456997722e-02
435 2  -5.66452735049061302519e-03
435 3  -7.27308141186980110227e-03
435 4  -6.60324474023344233468e-04
436 8  -4.66452153641610991336e-03
436 6   5.06030546238248438790e-10
436 7  -7.84166161550066409536e-03
436 5  -9.00716844455217574561e-02
436 1   6.43506233336757077490e-02
436 2   7.27308140337766875771e-03
436 3  -5.66452734206253534499e-03
436 4   6.60324478763223837730e-04
437 8  -1.70604083932039685134e-02
437 6   3.66862622433316524356e-03
437 7  -1.03802225992474864147e-02
437 5  -8.54788013171282196057e-02
437 2   1.99376035756988409520e-02
437 1   6.36902988580283907494e-02
437 3  -4.02252178196416728534e-03
437 4   1.95393967003522524284e-03
438 4   3.16756034185092325700e-03
438 6   1.06317407866669110666e-02
438 7  -1.22054007869653521889e-02
438 8  -2.88311107360218095430e-02
438 5  -7.66766560648135808709e-02
438 1   6.23764257294104965124e-02
438 2   3.18102989497578148015e-02
438 3  -2.41225221605374361838e-03
439 8  -3.94806149876646902963e-02
439 6   2.01757731297466796905e-02
439 7  -1.32980523377361336407e-02
439 5  -6.43976907024002009905e-02
439 2   4.24045941981152918476e-02
439 1   6.04224860640646538323e-02
439 3  -8.95591333782558719073e-04
439 4   4.25150072129815669031e-03
440 4   5.16138416185139923403e-03
440 6   3.13139364123887070646e-02
440 7  -1.36903792101543530374e-02
440 8  -4.85533841376228555986e-02
440 5  -4.96567561946308147491e-02
440 1   5.78485299270442634989e-02
440 2   5.12860084213141165232e-02
440 3   4.71394467252895209286e-04
441 8  -5.56548001823666538268e-02
441 6   4.28778806253214891941e-02
441 7  -1.34575541956100299540e-02
441 4   5.85995992851843713889e-03
441 5  -3.36591718705768483400e-02
441 1   5.46809695914173624076e-02
441 2   5.80899485348336797053e-02
441 3   1.64067861256366560527e-03
442 5  -1.76916775045491310447e-02
442 7  -1.27062751530386038729e-02
442 8  -6.04694457321669140426e-02
442 6   5.36263611539455897770e-02
442 2   6.25366458801802221901e-02
442 1   5.09523085126011576751e-02
442 3   2.57415910990875951986e-03
442 4   6.31862824729494641784e-03
443 8  -6.27762813427009819245e-02
443 7  -1.15614845782489490678e-02
443 5  -3.00626465067073411763e-03
443 6   6.23609406006978075898e-02
443 2   6.44426224495799476744e-02
443 1   4.67008077989311751188e-02
443 3   3.24511820988314944950e-03
443 4   6.51861118328577945902e-03
444 7  -1.01526156511845336294e-02
444 8  -6.24598895424455027858e-02
444 4   6.45172141156164641318e-03
444 6   6.80380925093168470452e-02
444 5   9.29247662060636407666e-03
444 1   4.19700936009124933590e-02
444 2   6.37282171677940045829e-02
444 3   3.63919823788989372018e-03
445 8  -5.95171239278547356544e-02
445 7  -8.60072021242197677637e-03
445 6   6.98674022879582773404e-02
445 4   6.12069740720724668470e-03
445 5   1.83461852419254632662e-02
445 1   3.68087094478831144961e-02
445 2   6.04208639536591013419e-02
445 3   3.75485485759970497033e-03
446 8  -5.40587146494574954936e-02
446 7  -7.00770025918788508346e-03
446 5   2.36186918385636011875e-02
446 6   6.73868326752046914452e-02
446 2   5.46539871854771833193e-02
446 1   3.12696181257148334010e-02
446 3   3.60327058982723566136e-03
446 4   5.53909133183201618511e-03
447 2   4.66615595990338555277e-02
447 7  -5.44861696751364373015e-03
447 6   6.05081218905512349671e-02
447 8  -4.63056291175948514516e-02
447 5   2.49421775751760589623e-02
447 1   2.54096582069590279374e-02
447 3   3.20773366355843947070e-03
447 4   4.73071420648316781632e-03
448 5   2.25293263848624393531e-02
448 7  -3.96771488701091416124e-03
448 8  -3.65802549208576605055e-02
448 6   4.95281195003140772837e-02
448 2   3.67685452101539425596e-02
448 1   1.92889608101789108985e-02
448 3   2.60250930507092406371e-03
448 4   3.72866108564587480853e-03
449 8  -2.52927448932805457038e-02
449 7  -2.57840688359083341358e-03
449 6   3.51049870059412516543e-02
449 3   1.83125147342732262114e-03
449 5   1.69503892105415353286e-02
449 1   1.29703325733010275261e-02
449 2   2.53776183060322596541e-02
449 4   2.57395614182495029512e-03
450 7  -1.26705568547127089482e-03
450 6   1.82014108955186153238e-02
450 5   9.07729913719715342246e-03
450 3   9.45021968919889840920e-04
450 2   1.29527019948113379655e-02
450 1   6.51861117252051751325e-03
450 8  -1.29231252216553058054e-02
450 4   1.31387313110038175985e-03
451 8   1.29231252339043548027e-02
451 7   1.26705567990059980027e-03
451 5   9.07729914209971094907e-03
451 6   1.82014108889910521116e-02
451 2  -1.29527019932043890166e-02
451 1   6.51861117252042210346e-03
451 3  -9.45021969332564292822e-04
451 4   1.31387312875696528336e-03
452 7   2.57840687284567300977e-03
452 8   2.52927449169069278045e-02
452 6   3.51049869931874258810e-02
452 5   1.69503892201486837388e-02
452 2  -2.53776183030427517073e-02
452 1   1.29703325733010622206e-02
452 3  -1.83125147423454778459e-03
452 4   2.57395613724165951697e-03
453 6   4.95281194819229622639e-02
453 7   3.96771487185265236269e-03
453 8   3.65802549542011204431e-02
453 4   3.72866107902945081998e-03
453 5   2.25293263987829464612e-02
453 1   1.92889608101788449790e-02
453 2  -3.67685452062096324033e-02
453 3  -2.60250930624074351336e-03
454 6   6.05081218673676410336e-02
454 7   5.44861694899652013180e-03
454 8   4.63056291583485227226e-02
454 5   2.49421775928423891666e-02
454 2  -4.66615595947225958451e-02
454 1   2.54096582069589065067e-02
454 3  -3.20773366503993061574e-03
454 4   4.73071419813212400152e-03
455 6   6.73868326482894852703e-02
455 7   7.00770023856662951228e-03
455 8   5.40587146948715985273e-02
455 4   5.53909132212729651834e-03
455 5   2.36186918592555666896e-02
455 1   3.12696181257148195232e-02
455 2  -5.46539871814909067327e-02
455 3  -3.60327059156168635207e-03
456 8   5.95171239749818503650e-02
456 6   6.98674022585344112191e-02
456 7   8.60072019104263577050e-03
456 4   6.12069739659225429268e-03
456 5   1.83461852648001792765e-02
456 1   3.68087094478830520461e-02
456 2  -6.04208639507281819458e-02
456 3  -3.75485485951421562104e-03
457 5   9.29247664473264838036e-03
457 7   1.01526156303672586423e-02
457 8   6.24598895883993199263e-02
457 6   6.80380924787033353196e-02
457 2  -6.37282171666144203748e-02
457 1   4.19700936009122990700e-02
457 3  -3.63919823990513282425e-03
457 4   6.45172140052631751250e-03
458 8   6.27762813848998790789e-02
458 7   1.15614845591731178753e-02
458 6   6.23609405702494276613e-02
458 2  -6.44426224507450573498e-02
458 5  -3.00626462627516001513e-03
458 1   4.67008077989309947076e-02
458 3  -3.24511821191629783873e-03
458 4   6.51861117234523671643e-03
459 7   1.27062751366386807866e-02
459 8   6.04694457685596153951e-02
459 6   5.36263611249850405405e-02
459 5  -1.76916774808743258729e-02
459 2  -6.25366458841198902263e-02
459 1   5.09523085126010882862e-02
459 3  -2.57415911187698414828e-03
459 4   6.31862823696350845576e-03
460 7   1.34575541825027438642e-02
460 8   5.56548002115984444260e-02
460 6   4.28778805990845460205e-02
460 5  -3.36591718485855437293e-02
460 2  -5.80899485417673278054e-02
460 1   5.46809695914172583242e-02
460 3  -1.64067861438936578658e-03
460 4   5.85995991929470511766e-03
461 7   1.36903792005885031891e-02
461 8   4.85533841591403933502e-02
461 4   5.16138415419380418986e-03
461 6   3.13139363899608696995e-02
461 5  -4.96567561752146585663e-02
461 1   5.78485299270442426822e-02
461 2  -5.12860084312259933981e-02
461 3  -4.71394468861998088439e-04
462 8   3.94806150017505894101e-02
462 7   1.32980523315806131029e-02
462 1   6.04224860640645428100e-02
462 6   2.01757731120234019839e-02
462 5  -6.43976906863466952435e-02
462 2  -4.24045942107469236992e-02
462 3   8.95591332453803687721e-04
462 4   4.25150071560371264207e-03
463 5  -7.66766560527732121688e-02
463 7   1.22054007837344938997e-02
463 8   2.88311107437367805661e-02
463 6   1.06317407743158655331e-02
463 2  -3.18102989646248043853e-02
463 1   6.23764257294102744678e-02
463 3   2.41225221506020763573e-03
463 4   3.16756033844753804446e-03
464 8   1.70604083962690965259e-02
464 7   1.03802225981497169699e-02
464 6   3.66862621777400187487e-03
464 1   6.36902988580284323827e-02
464 5  -8.54788013095824361631e-02
464 2  -1.99376035921291737407e-02
464 3   4.02252178134824590894e-03
464 4   1.95393966914779882577e-03
465 2  -7.27308142056350484528e-03
465 7   7.84166161552697464632e-03
465 8   4.66452153703330284207e-03
465 6   5.05421699177017662120e-10
465 5  -9.00716844427685014995e-02
465 1   6.43506233336755134600e-02
465 3   5.66452734185152011193e-03
465 4   6.60324480531202396422e-04
466 7   4.66452152907336631271e-03
466 8  -7.84166161837125327838e-03
466 6   5.08492006231007299601e-10
466 5  -9.00716844452887632766e-02
466 2   5.66452733342473133127e-03
466 1   6.43506233336757077490e-02
466 3   7.27308141207214098323e-03
466 4  -6.60324469586354720688e-04
467 7   9.78874827562218425767e-04
467 8  -1.99461364616573336161e-02
467 6   3.66862622685616007745e-03
467 5  -8.54788013170399291196e-02
467 2   1.83455554473440467234e-02
467 1   6.36902988580283213604e-02
467 3   8.78232959937824166075e-03
467 4  -1.95393965800818875805e-03
468 7  -3.03526238770044981194e-03
468 8  -3.11607435207392861887e-02
468 4  -3.16756032694581095635e-03
468 6   1.06317407890431647743e-02
468 5  -7.66766560648639017295e-02
468 1   6.23764257294102328344e-02
468 2   3.02510933311775434551e-02
468 3   1.01284466895722267271e-02
469 8  -4.10404751048651858514e-02
469 7  -7.15797169836004248955e-03
469 1   6.04224860640645219934e-02
469 6   2.01757731317917313185e-02
469 5  -6.43976907025769901294e-02
469 2   4.08942306488895707117e-02
469 3   1.12522705550470291519e-02
469 4  -4.25150070363376677424e-03
470 5  -4.96567561949192992632e-02
470 7  -1.11435336589545668645e-02
470 8  -4.92003988973993278133e-02
470 6   3.13139364139620596239e-02
470 2   4.98399853152943633772e-02
470 1   5.78485299270442288044e-02
470 3   1.21017658375825072625e-02
470 4  -5.16138414173030694171e-03
471 8  -5.53296244285840996269e-02
471 7  -1.47375441947053542613e-02
471 6   4.28778806263338668758e-02
471 1   5.46809695914171681186e-02
471 5  -3.36591718709579323932e-02
471 2   5.67231040258546481692e-02
471 3   1.26342161156767166658e-02
471 4  -5.85995990640582765235e-03
472 8  -5.92019050684429587461e-02
472 6   5.36263611543676688154e-02
472 7  -1.76956981165795647348e-02
472 5  -1.76916775049972135880e-02
472 1   5.09523085126010952250e-02
472 2   6.12630056425244040597e-02
472 3   1.28180541743344988265e-02
472 4  -6.31862822381475640332e-03
473 8  -6.06826364836847778617e-02
473 6   6.23609406005607574963e-02
473 7  -1.98027032121879144333e-02
473 5  -3.00626465116014297829e-03
473 2   6.32752557555786299126e-02
473 1   4.67008077989310918521e-02
473 3   1.26342546099949409877e-02
473 4  -6.51861115919224066301e-03
474 4  -6.45172138770685153764e-03
474 6   6.80380925087033516796e-02
474 7  -2.08897331264764236913e-02
474 8  -5.97321727081721459696e-02
474 5   9.29247662010287099610e-03
474 1   4.19700936009122158032e-02
474 2   6.26791027794095789716e-02
474 3   1.20772307286288009542e-02
475 8  -5.64055253629303227081e-02
475 6   6.98674022869943400771e-02
475 7  -2.08489121463497628639e-02
475 5   1.83461852414337489581e-02
475 2   5.95007672041764704152e-02
475 1   3.68087094478830589850e-02
475 3   1.11551978070665077508e-02
475 4  -6.12069738449832426858e-03
476 4  -5.53909131117970559427e-03
476 6   6.73868326740452577850e-02
476 7  -1.96435442723781571173e-02
476 8  -5.08486348017448130943e-02
476 5   2.36186918381077227969e-02
476 1   3.12696181257148680954e-02
476 2   5.38723495126185863979e-02
476 3   9.88998646503765933835e-03
477 8  -4.32915012846882898967e-02
477 6   6.05081218893625746857e-02
477 7  -1.73131346553169820912e-02
477 4  -4.73071418875331897724e-03
477 5   2.49421775747809930379e-02
477 1   2.54096582069589481401e-02
477 2   4.60264016630323596901e-02
477 3   8.31631225229449884406e-03
478 5   2.25293263845474309170e-02
478 7  -1.39726750424107992038e-02
478 8  -3.40385393901455474142e-02
478 6   4.95281194992563122970e-02
478 2   3.62863845909255633426e-02
478 1   1.92889608101788762040e-02
478 3   6.48052967795509186899e-03
478 4  -3.72866107160606686383e-03
479 8  -2.34565715932356713691e-02
479 7  -9.80613968192337905061e-03
479 6   3.51049870051513071556e-02
479 2   2.50534026239872011088e-02
479 5   1.69503892103220962784e-02
479 1   1.29703325733010396692e-02
479 3   4.43891989359865811460e-03
479 4  -2.57395613209822826314e-03
480 7  -5.05462272550057968579e-03
480 8  -1.19609106980859761227e-02
480 6   1.82014108950971781331e-02
480 5   9.07729913708426976171e-03
480 2   1.27897581415741031646e-02
480 1   6.51861117252047674725e-03
480 3   2.25558022962330569777e-03
480 4  -1.31387312612433202266e-03
481 7  -2.73289651287091355653e-03
481 8   1.27244427775219989124e-02
481 6   1.76430140908586247095e-02
481 5   9.35577945658741701174e-03
481 2  -1.29802341383536447295e-02
481 1   6.45172140080664275469e-03
481 3   3.55130340812604534083e-04
481 4   3.88782926629165255517e-03
482 7  -5.06933832479499781043e-03
482 8   2.48556517355086568910e-02
482 4   7.61649034562096507311e-03
482 6   3.40053243206131505794e-02
482 5   1.75158932812310569327e-02
482 1   1.28372394094475664184e-02
482 2  -2.54364520120439301099e-02
482 3   7.55208040172334477136e-04
483 8   3.58313109965864573514e-02
483 7  -6.65520278349427361897e-03
483 1   1.90910299701509064696e-02
483 6   4.79202312776008249040e-02
483 5   2.33978076852681370068e-02
483 2  -3.68660147504049559575e-02
483 3   1.24272989515001827145e-03
483 4   1.10333314153047822720e-02
484 5   2.61348404043202642288e-02
484 7  -7.21690421901654676623e-03
484 8   4.51490665893591602842e-02
484 6   5.84386233327497534029e-02
484 2  -4.68081638565151017528e-02
484 1   2.51489207290191800481e-02
484 3   1.85539816978765579637e-03
484 4   1.39984666004992590327e-02
485 8   5.23919549608951595765e-02
485 7  -6.59173319640666763308e-03
485 6   6.49126732157270791568e-02
485 1   3.09487495292217126841e-02
485 5   2.51590114384703765482e-02
485 2  -5.48628111490711625753e-02
485 3   2.62398537530618642180e-03
485 4   1.63905029183493769485e-02
486 8   5.72487290342395746534e-02
486 6   6.70520055106533646727e-02
486 7  -4.74733257188094791984e-03
486 5   2.02563912074826581178e-02
486 1   3.64310022788416065787e-02
486 2  -6.07068471588363481328e-02
486 3   3.57050128971508375086e-03
486 4   1.81115101209712442420e-02
487 8   5.95279510585490778674e-02
487 6   6.49472166769447939449e-02
487 7  -1.78833761592903746004e-03
487 5   1.15898361341732359514e-02
487 2  -6.41073010432313128426e-02
487 1   4.15394236459968729802e-02
487 3   4.70674314055210402108e-03
487 4   1.90910299713107113606e-02
488 4   1.92889608116421119866e-02
488 6   5.90586222542201985664e-02
488 7   2.05057918207755341192e-03
488 8   5.91651514320531493607e-02
488 5  -3.13005635818754785697e-04
488 1   4.62215943146694271948e-02
488 2  -6.49308139507000781077e-02
488 3   6.03329393718824921744e-03
489 8   5.62228226625823487850e-02
489 6   5.01712935750749933206e-02
489 7   6.42472885509978719476e-03
489 5  -1.46053484453526772474e-02
489 2  -6.31490386559450528337e-02
489 1   5.04294688778218203051e-02
489 3   7.53901528355408346443e-03
489 4   1.86971993301443574487e-02
490 4   1.73399723114458399753e-02
490 6   3.93205362266921473746e-02
490 7   1.09107174777621600270e-02
490 8   5.08834913559341878164e-02
490 5  -3.01964239374122520032e-02
490 1   5.41198688482882953044e-02
490 2  -5.88397450209538763755e-02
490 3   9.20106039506949843765e-03
491 8   4.34365526482853314683e-02
491 6   2.76946712808212348877e-02
491 7   1.50461889649571439742e-02
491 4   1.52728447892011096748e-02
491 5  -4.58492689491802538071e-02
491 1   5.72549257284814122615e-02
491 2  -5.21835865892898501106e-02
491 3   1.09854113325665424944e-02
492 5  -6.02922004178808521035e-02
492 7   1.83743166879340863451e-02
492 8   3.42599282444703556738e-02
492 6   1.65240595227298704695e-02
492 2  -4.34566611975698915971e-02
492 1   5.98024695924190066720e-02
492 3   1.28479225439775447681e-02
492 4   1.25804452070929478208e-02
493 7   2.04888777666724850035e-02
493 6   6.96656787162436112737e-03
493 5  -7.23337729840030779771e-02
493 8   2.37978946317950398881e-02
493 1   6.17363591926974528135e-02
493 2  -3.30191706190287523337e-02
493 3   1.47358315739031155850e-02
493 4   9.37300072039943220348e-03
494 8   1.25366036847424939388e-02
494 6   4.53252705200050596628e-10
494 7   2.10756458349952296993e-02
494 5  -8.09706924800223104555e-02
494 2  -2.13006438931209081400e-02
494 1   6.30367502050627470656e-02
494 3   1.65896781360946633799e-02
494 4   5.78182448329340754195e-03
495 4   1.95393967289332181475e-03
495 6  -3.66862525935784640832e-03
495 7   1.99461364506189654799e-02
495 8   9.78874838878441557929e-04
495 5  -8.54788013528955392673e-02
495 1   6.36902988580285850384e-02
495 2  -8.78232960728874550993e-03
495 3   1.83455554550741965769e-02
496 8  -1.03802225986489166099e-02
496 6  -3.66862525628045910500e-03
496 7   1.70604083777133423705e-02
496 5  -8.54788013555307507607e-02
496 2   4.02252177362046482029e-03
496 1   6.36902988580286821829e-02
496 3   1.99376035842188728542e-02
496 4  -1.95393965689898054666e-03
497 4  -5.78182446715877224747e-03
497 6   4.62360671528746332484e-10
497 7   1.25366036629742539504e-02
497 8  -2.10756458436249377586e-02
497 5  -8.09706924878218353703e-02
497 1   6.30367502050627886989e-02
497 2   1.65896781295665311784e-02
497 3   2.13006438860640599786e-02
498 8  -3.06914175410597372951e-02
498 6   6.96656788638964994537e-03
498 7   6.64611088629010748896e-03
498 4  -9.37300070401295148947e-03
498 5  -7.23337729966508774515e-02
498 1   6.17363591926976054691e-02
498 2   2.84053878099050430284e-02
498 3   2.23728474533770455013e-02
499 5  -6.02922004348572793120e-02
499 7  -2.05450396882756483553e-04
499 8  -3.88756477282365744963e-02
499 6   1.65240595425482569847e-02
499 2   3.89874049984493889487e-02
499 1   5.98024695924191315721e-02
499 3   2.30983282255391476900e-02
499 4  -1.25804451904015460878e-02
500 8  -4.53511080484859732675e-02
500 7  -7.50992047519261334693e-03
500 6   2.76946713048793202727e-02
500 4  -1.52728447722278500714e-02
500 5  -4.58492689697915026259e-02
500 1   5.72549257284814677726e-02
500 2   4.79047176169828600734e-02
500 3   2.34295540032416170495e-02
501 8  -4.99212768015261654231e-02
501 7  -1.46982845454202530611e-02
501 5  -3.01964239608142857862e-02
501 6   3.93205362540052782983e-02
501 2   5.47951702614914021305e-02
501 1   5.41198688482885867379e-02
501 3   2.33294753917939919063e-02
501 4  -1.73399722943054987456e-02
502 7  -2.11887301980614103925e-02
502 8  -5.24720939012277981517e-02
502 6   5.01712936045247068217e-02
502 5  -1.46053484705847332753e-02
502 2   5.93802609194737790466e-02
502 1   5.04294688778217925496e-02
502 3   2.27732836363436844107e-02
502 4  -1.86971993130464857191e-02
503 7  -2.64368386421901212235e-02
503 8  -5.29699308817014741235e-02
503 4  -1.92889607948802631332e-02
503 6   5.90586222846001263065e-02
503 5  -3.13005661848947652325e-04
503 1   4.62215943146694410726e-02
503 2   6.14765059964926530167e-02
503 3   2.17497229097287810007e-02
504 8  -5.14564735596659758587e-02
504 7  -2.99834359782841682052e-02
504 1   4.15394236459967758357e-02
504 6   6.49472167070134914768e-02
504 5   1.15898361084118481368e-02
504 2   6.10029087448691054174e-02
504 3   2.02619002841068970855e-02
504 4  -1.90910299552575907223e-02
505 5   2.02563911830434817407e-02
505 7  -3.14958008330747732395e-02
505 8  -4.80413225051762801665e-02
505 6   6.70520055391801012012e-02
505 2   5.79842257816213582644e-02
505 1   3.64310022788416204564e-02
505 3   1.83275566431741615547e-02
505 4  -1.81115101060496039298e-02
506 8  -4.28931364202148890374e-02
506 7  -3.07984859240795043334e-02
506 6   6.49126732415444551716e-02
506 1   3.09487495292217612564e-02
506 5   2.51590114163519999735e-02
506 2   5.25498984719523290488e-02
506 3   1.59787833586170248401e-02
506 4  -1.63905029050075215502e-02
507 2   4.49286934927326520040e-02
507 7  -2.78909141137942025168e-02
507 8  -3.62300817989554130305e-02
507 6   5.84386233547991018611e-02
507 5   2.61348403854302566152e-02
507 1   2.51489207290192043343e-02
507 3   1.32611917843924662086e-02
507 4  -1.39984665891794649722e-02
508 7  -2.29500734528294801640e-02
508 8  -2.83102225046904208694e-02
508 6   4.79202312949790001917e-02
508 5   2.33978076703781658063e-02
508 2   3.54392726085658374413e-02
508 1   1.90910299701508960613e-02
508 3   1.02325646103421270816e-02
508 4  -1.10333314064120380921e-02
509 7  -1.63179558504581642686e-02
509 8  -1.94223049631542694915e-02
509 6   3.40053243326094781218e-02
509 5   1.75158932709530909544e-02
509 2   2.44770783966618520056e-02
509 1   1.28372394094475091725e-02
509 3   6.96103896645321185144e-03
509 4  -7.61649033949073159949e-03
510 7  -8.47474117289241310469e-03
510 8  -9.87719237060191018740e-03
510 4  -3.88782926316410528886e-03
510 6   1.76430140969817232655e-02
510 5   9.35577945134130790905e-03
510 1   6.45172140080671474571e-03
510 2   1.24980735205641093483e-02
510 3   3.52289003090650119226e-03
511 8   1.14309491432943825806e-02
511 7  -6.76675296966861624520e-03
511 1   6.31862823695199162660e-03
511 6   1.65660364634473873668e-02
511 5   9.87579643981462487745e-03
511 2  -1.28671754701464528120e-02
511 3   1.59215209668428850365e-03
511 4   6.30261721681231370379e-03
512 5   1.85732762138390503082e-02
512 7  -1.27951543186372914546e-02
512 8   2.22767176066804226120e-02
512 6   3.18851053575213080893e-02
512 2  -2.52195571037559899963e-02
512 1   1.25724187977041008263e-02
512 3   3.21555563664598651266e-03
512 4   1.23472045442487767669e-02
513 8   3.19868314930050745559e-02
513 7  -1.74193935810480482473e-02
513 6   4.48218166763234282524e-02
513 1   1.86971993283552503917e-02
513 5   2.50249957697152858316e-02
513 2  -3.65633037524659074147e-02
513 3   4.89919307860485660211e-03
513 4   1.78862958669248686694e-02
514 8   4.00778236183664468562e-02
514 6   5.44537301731830222784e-02
514 7  -2.01118917503915230205e-02
514 5   2.83750596427379542241e-02
514 1   2.46301212924952758754e-02
514 2  -4.64456231012234169175e-02
514 3   6.66761195875429594354e-03
514 4   2.26931201352938878568e-02
515 8   4.61609087078956314976e-02
515 6   6.01532525780864163467e-02
515 7  -2.05359263296199696935e-02
515 5   2.80603348345977408884e-02
515 2  -5.44731897813576088074e-02
515 1   3.03103048822368353887e-02
515 3   8.53896072302241272711e-03
515 4   2.65708853990486749963e-02
516 4   2.93608354927026200809e-02
516 6   6.16425759142724544182e-02
516 7  -1.85801909091466987967e-02
516 8   4.99631778830225067867e-02
516 5   2.38647276809208497284e-02
516 1   3.56794637274290352136e-02
516 2  -6.03281326356143246525e-02
516 3   1.05233165853953220675e-02
517 8   5.13409606686229050276e-02
517 6   5.90166448308143826162e-02
517 7  -1.43719689663902687460e-02
517 5   1.59415179117257423125e-02
517 2  -6.37809378000639831674e-02
517 1   4.06825029926894260468e-02
517 3   1.26213834042439212307e-02
517 4   3.09487495316466687534e-02
518 4   3.12696181285975760566e-02
518 6   5.27320721464930516897e-02
518 7  -8.26759219490934803287e-03
518 8   5.02846066917037592958e-02
518 5   4.80167559830941333837e-03
518 1   4.52680847249703199875e-02
518 2  -6.46997404840986833907e-02
518 3   1.48236220138381925848e-02
519 8   4.69145922191516323574e-02
519 6   4.35630436686575417404e-02
519 7  -8.20971215790062994015e-04
519 4   3.03103048855382535554e-02
519 5  -8.73079180730210700767e-03
519 1   4.93891546504270015361e-02
519 2  -6.30556261147252744559e-02
519 3   1.71098572436922807816e-02
520 5  -2.35923894227768882192e-02
520 7   7.26696461944283892548e-03
520 8   4.14695042855259543568e-02
520 6   3.25282794810405478936e-02
520 2  -5.89237248152970558013e-02
520 1   5.30034250149411176323e-02
520 3   1.94493857543007603317e-02
520 4   2.81100841994030639648e-02
521 7   1.52132909208640646620e-02
521 6   2.07957717425575859538e-02
521 5  -3.85758565876537021233e-02
521 8   3.42870440566744455468e-02
521 1   5.60738085137018407722e-02
521 2  -5.24800553268100836157e-02
521 3   2.18015876435592552418e-02
521 4   2.47590333636443678256e-02
522 8   2.57796736380854867032e-02
522 6   9.57405530130238033304e-03
522 7   2.22265813515470887773e-02
522 5  -5.24392991984244868919e-02
522 2  -4.39942484053918794751e-02
522 1   5.85687988571376508262e-02
522 3   2.41170234072098851885e-02
522 4   2.03943447932534438483e-02
523 4   1.51947093511790674164e-02
523 6   3.56799703527606233700e-10
523 7   2.75820603572100482570e-02
523 8   1.64068689636449570324e-02
523 5  -6.40187393585160691156e-02
523 1   6.04627940680809300433e-02
523 2  -3.38184483230784121988e-02
523 3   2.63389771517868222228e-02
524 8   6.64611090944573941475e-03
524 6  -6.96656706323930691865e-03
524 7   3.06914175283086142210e-02
524 5  -7.23337730642596155040e-02
524 2  -2.23728474592145530619e-02
524 1   6.17363591926972862800e-02
524 3   2.84053878148866414954e-02
524 4   9.37300072337903834863e-03
525 4   3.16756034512353026877e-03
525 6  -1.06317399155252938908e-02
525 7   3.11607435055805057078e-02
525 8  -3.03526237476521793326e-03
525 5  -7.66766561762808884772e-02
525 1   6.23764257294103993678e-02
525 2  -1.01284466965117208453e-02
525 3   3.02510933378253021875e-02
526 8  -1.22054007845251982073e-02
526 6  -1.06317399127014242805e-02
526 7   2.88311107165028918109e-02
526 4  -3.16756032538329564824e-03
526 5  -7.66766561789993389420e-02
526 1   6.23764257294103577345e-02
526 2   2.41225220841221081255e-03
526 3   3.18102989576852582254e-02
527 5  -7.23337730723038752068e-02
527 7   2.37978946015048840879e-02
527 8  -2.04888777754165772593e-02
527 6  -6.96656705488318470088e-03
527 2   1.47358315689202021975e-02
527 1   6.17363591926973973023e-02
527 3   3.30191706131908041533e-02
527 4  -9.37300070354381287263e-03
528 8  -2.75820603699756632110e-02
528 7   1.64068689321746896681e-02
528 6   3.70347698058691639200e-10
528 4  -1.51947093311822385708e-02
528 5  -6.40187393715577479636e-02
528 1   6.04627940680808953489e-02
528 2   2.63389771487710019904e-02
528 3   3.38184483186762668838e-02
529 8  -3.32622844068824821684e-02
529 7   7.22723507960988664767e-03
529 5  -5.24392992159299353716e-02
529 6   9.57405531948663998665e-03
529 2   3.67490714431565265730e-02
529 1   5.85687988571376438873e-02
529 3   3.41559725143107395517e-02
529 4  -2.03943447730833248011e-02
530 7  -2.99613519766801133029e-03
530 8  -3.73907579977949058869e-02
530 6   2.07957717646321538219e-02
530 5  -3.85758566089077284400e-02
530 2   4.55435178969003581773e-02
530 1   5.60738085137018893445e-02
530 3   3.39890189348999727237e-02
530 4  -2.47590333433613772607e-02
531 7  -1.34070452993156098709e-02
531 8  -3.99096441382567890255e-02
531 4  -2.81100841791565789207e-02
531 6   3.25282795061011473225e-02
531 5  -2.35923894469077036207e-02
531 1   5.30034250149411523267e-02
531 2   5.23670051785159462732e-02
531 3   3.32863443608497899806e-02
532 8  -4.08342306739536420324e-02
532 7  -2.31131685383402403489e-02
532 1   4.93891546504269599027e-02
532 6   4.35630436956777680746e-02
532 5  -8.73079183332229995240e-03
532 2   5.69460050871377215786e-02
532 3   3.20298564543224986712e-02
532 4  -3.03103048655667429989e-02
533 5   4.80167557146774122423e-03
533 7  -3.12653317428694746405e-02
533 8  -4.02414435502854231363e-02
533 6   5.27320721743666023795e-02
533 2   5.90999110448169329146e-02
533 1   4.52680847249703546820e-02
533 3   3.02158353078397327873e-02
533 4  -3.12696181092219430142e-02
534 8  -3.82561697887390111950e-02
534 7  -3.71337205803848810493e-02
534 6   5.90166448584025365998e-02
534 1   4.06825029926894746191e-02
534 5   1.59415178851599406706e-02
534 2   5.87483617764696791630e-02
534 3   2.78556517608538993513e-02
534 4  -3.09487495132639359174e-02
535 8  -3.50369157422847563033e-02
535 6   6.16425759404473846970e-02
535 7  -4.01740858041861534367e-02
535 5   2.38647276557185511470e-02
535 1   3.56794637274290421525e-02
535 2   5.59144510672930639128e-02
535 3   2.49759472681457539434e-02
535 4  -2.93608354757549164238e-02
536 8  -3.07622342667919525250e-02
536 6   6.01532526017760152404e-02
536 7  -4.00779079125681836349e-02
536 5   2.80603348117895272373e-02
536 2   5.07236930132030916507e-02
536 1   3.03103048822368874304e-02
536 3   2.16182613336488201050e-02
536 4  -2.65708853840013851932e-02
537 4  -2.26931201226000904547e-02
537 6   5.44537301934154838179e-02
537 7  -3.68019090005980778479e-02
537 8  -2.56191261963614504149e-02
537 5   2.83750596232595388158e-02
537 1   2.46301212924951440364e-02
537 2   4.33987860432720612414e-02
537 3   1.78381143935035478554e-02
538 8  -1.97942843196543191708e-02
538 6   4.48218166922690897103e-02
538 7  -3.05741552329013011047e-02
538 5   2.50249957543621642797e-02
538 2   3.42503910753196097461e-02
538 1   1.86971993283552677390e-02
538 3   1.37035756553206631431e-02
538 4  -1.78862958569971676470e-02
539 4  -1.23472045374268986351e-02
539 6   3.18851053685288918227e-02
539 7  -2.18761028859988000683e-02
539 8  -1.34686392407460473614e-02
539 5   1.85732762032407919262e-02
539 1   1.25724187977041563374e-02
539 2   2.36643024208129694463e-02
539 3   9.29336589816890518145e-03
540 8  -6.81522963138580725739e-03
540 6   1.65660364690661116027e-02
540 7  -1.14021133523863216902e-02
540 4  -6.30261721333791585103e-03
540 5   9.87579643440331285398e-03
540 1   6.31862823695195866686e-03
540 2   1.20855377986598105239e-02
540 3   4.69456377679689992877e-03
541 5   1.05669683166138266700e-02
541 7  -1.06412727395593636331e-02
541 8   9.20618813275607579538e-03
541 6   1.50465749525311946050e-02
541 2  -1.26100923305435732441e-02
541 1   6.12069739692090112465e-03
541 3   2.71640188036261723964e-03
541 4   8.45937527790454647791e-03
542 8   1.78781729504658391805e-02
542 7  -2.02277066946543772341e-02
542 6   2.88955103585750473771e-02
542 4   1.65724227380093479256e-02
542 5   1.99822639006455339550e-02
542 1   1.21785881559044635580e-02
542 2  -2.47200187660408486623e-02
542 3   5.45102815342954870326e-03
543 8   2.55180493562208489389e-02
543 7  -2.78044407661878316407e-02
543 5   2.72017193872610071881e-02
543 6   4.04571437200075198493e-02
543 2  -3.58499251283866879336e-02
543 1   1.81115101201112967122e-02
543 3   8.22002893302971847367e-03
543 4   2.40069932640708874616e-02
544 7  -3.26072670385871496435e-02
544 8   3.16976992902272478037e-02
544 6   4.88478820316101264298e-02
544 5   3.13862983832765007897e-02
544 2  -4.55597508037795875802e-02
544 1   2.38585834816491849930e-02
544 3   1.10355043252915521745e-02
544 4   3.04587146652463523766e-02
545 7  -3.41355605215203083969e-02
545 8   3.60868981468494623432e-02
545 4   3.56634527093503753137e-02
545 6   5.34694314513728813365e-02
545 5   3.19808679271420537304e-02
545 1   2.93608354907871314798e-02
545 2  -5.34670848084837710412e-02
545 3   1.39037216253985098507e-02
546 8   3.84739177685389788230e-02
546 7  -3.22006578269464216469e-02
546 1   3.45618055961712036805e-02
546 6   5.40619157556407256560e-02
546 5   2.87668740555825606930e-02
546 2  -5.92626666860693179784e-02
546 3   1.68236116388112803832e-02
546 4   3.94081248093566607893e-02
547 5   2.18840709566814027587e-02
547 7  -2.69451466796963474970e-02
547 8   3.87771328129913744887e-02
547 6   5.07260295142718600769e-02
547 2  -6.27228992186409095577e-02
547 1   3.94081248064852007751e-02
547 3   1.97856184846274124611e-02
547 4   4.15394236495453053615e-02
548 8   3.70468858322227367896e-02
548 7  -1.88312157318578157761e-02
548 6   4.39122113341227152117e-02
548 1   4.38500633285209689971e-02
548 5   1.18192934087029532381e-02
548 2  -6.37188622034646490189e-02
548 3   2.27709622220012078420e-02
548 4   4.19700936050273823441e-02
549 4   4.06825029972695748071e-02
549 7  -8.59907478378093247107e-03
549 8   3.34576701495530939856e-02
549 6   3.43778465418411310894e-02
549 5  -6.36714011504254393317e-04
549 1   4.78420408621506101920e-02
549 2  -6.22214597097844948626e-02
549 3   2.57513560686853555659e-02
550 8   2.82914785258329311290e-02
550 7   2.80077410737616678410e-03
550 5  -1.44604664729727720035e-02
550 6   2.31164399511779167229e-02
550 2  -5.83024914282181186409e-02
550 1   5.13430943158856706310e-02
550 3   2.86892005799690950896e-02
550 4   3.77293659370874084891e-02
551 7   1.42952091614098244360e-02
551 8   2.19138713697061490726e-02
551 6   1.12652690362831393173e-02
551 5  -2.84883933537985710449e-02
551 2  -5.21316054813019957859e-02
551 1   5.43172981436264093458e-02
551 3   3.15382567290927451342e-02
551 4   3.32315842027539401493e-02
552 7   2.47880434914249832279e-02
552 8   1.47448804137854053847e-02
552 4   2.73732975069844730598e-02
552 6   2.29280039666746798914e-10
552 5  -4.15224917479219135519e-02
552 1   5.67341329893773158033e-02
552 2  -4.39692585526378909577e-02
552 3   3.42447792219894367460e-02
553 8   7.22723511003759647858e-03
553 7   3.32622843948596272345e-02
553 1   5.85687988571378381764e-02
553 6  -9.57405471887565369393e-03
553 5  -5.24392993078146227304e-02
553 2  -3.41559725170356154322e-02
553 3   3.67490714440229862547e-02
553 4   2.03943447954716000625e-02
554 5  -6.02922006073165692164e-02
554 7   3.88756477162244887258e-02
554 8  -2.05450374520295479504e-04
554 6  -1.65240588505054693258e-02
554 2  -2.30983282298763935303e-02
554 1   5.98024695924190413665e-02
554 3   3.89874050016398368546e-02
554 4   1.25804452122448492957e-02
555 8  -7.15797168590159155199e-03
555 7   4.10404750905193349553e-02
555 6  -2.01757723917974987615e-02
555 1   6.04224860640645636267e-02
555 5  -6.43976909188373330961e-02
555 2  -1.12522705606984546600e-02
555 3   4.08942306541521111152e-02
555 4   4.25150072435976061208e-03
556 8  -1.32980523354424076676e-02
556 6  -2.01757723894514795493e-02
556 7   3.94806149690960297982e-02
556 5  -6.43976909215994014479e-02
556 1   6.04224860640644803600e-02
556 2   8.95591327189503298885e-04
556 3   4.24045942050950280811e-02
556 4  -4.25150070222689215743e-03
557 8  -1.83743166994621599797e-02
557 6  -1.65240588435641468090e-02
557 7   3.42599282089135551144e-02
557 5  -6.02922006154903850073e-02
557 2   1.28479225407850151941e-02
557 1   5.98024695924191038165e-02
557 3   4.34566611932329857626e-02
557 4  -1.25804451900516627710e-02
558 4  -2.03943447731844695880e-02
558 6  -9.57405470762267597762e-03
558 7   2.57796736015044360146e-02
558 8  -2.22265813668949818727e-02
558 5  -5.24392993210645586011e-02
558 1   5.85687988571376022540e-02
558 2   2.41170234063428010063e-02
558 3   4.39942484026672325781e-02
559 8  -2.47880435059434182932e-02
559 6   2.44383954734407687913e-10
559 7   1.47448803783911119858e-02
559 5  -4.15224917657089770406e-02
559 2   3.42447792235677020423e-02
559 1   5.67341329893773019255e-02
559 3   4.39692585517247672144e-02
559 4  -2.73732974846234156097e-02
560 4  -3.32315841804023334727e-02
560 6   1.12652690546181741965e-02
560 7   2.10266200810157273191e-03
560 8  -2.60796774403500609962e-02
560 5  -2.84883933753932519495e-02
560 1   5.43172981436264301625e-02
560 2   4.28213822514131592367e-02
560 3   4.33439171035806883325e-02
561 8  -2.61978336450424086068e-02
561 6   2.31164399719918194076e-02
561 7  -1.10419927716764124798e-02
561 4  -3.77293659149179547163e-02
561 5  -1.44604664974904619651e-02
561 1   5.13430943158855734865e-02
561 2   4.95020597867276354598e-02
561 3   4.20927168763715470190e-02
562 5  -6.36714037942506154780e-04
562 7  -2.35253368848662783308e-02
562 8  -2.52966065378258039842e-02
562 6   3.43778465642821384751e-02
562 2   5.40211239941546447763e-02
562 1   4.78420408621505893754e-02
562 3   4.02039867549795412738e-02
562 4  -4.06825029755387215791e-02
563 8  -2.35669483796317330571e-02
563 7  -3.42298901300442243167e-02
563 6   4.39122113572720518260e-02
563 4  -4.19700935840724501102e-02
563 5   1.18192933814285569549e-02
563 1   4.38500633285209134860e-02
563 2   5.62027689547043365903e-02
563 3   3.76810148997772792479e-02
564 8  -2.12147214286480985390e-02
564 7  -4.21858098356979738242e-02
564 5   2.18840709296869821709e-02
564 6   5.07260295371850106205e-02
564 2   5.59681737239502569148e-02
564 1   3.94081248064852979196e-02
564 3   3.45426738454006274082e-02
564 4  -4.15394236297716157313e-02
565 7  -4.66593552009170881023e-02
565 8  -1.84398829421773581549e-02
565 6   5.40619157773800998457e-02
565 5   2.87668740299757003109e-02
565 2   5.33386215690659498678e-02
565 1   3.45618055961711412305e-02
565 3   3.08235141022331245175e-02
565 4  -3.94081247912144855272e-02
566 7  -4.72203513451571257886e-02
566 8  -1.54187913462528920772e-02
566 4  -3.56634526933096440704e-02
566 6   5.34694314710500093191e-02
566 5   3.19808679039692220214e-02
566 1   2.93608354907870724992e-02
566 2   4.84345087879402974584e-02
566 3   2.65733135396985752086e-02
567 8  -1.22912300078161524503e-02
567 7  -4.37824584395669208492e-02
567 1   2.38585834816492543820e-02
567 6   4.88478820484166548210e-02
567 5   3.13862983634854778026e-02
567 2   4.14702849191673009188e-02
567 3   2.18560911088827684867e-02
567 4  -3.04587146517618367891e-02
568 5   2.72017193716610240772e-02
568 7  -3.66125190970804925694e-02
568 8  -9.15320781511661657470e-03
568 6   4.04571437332539723952e-02
568 2   3.27455328329907952023e-02
568 1   1.81115101201113175289e-02
568 3   1.67486144916292357954e-02
568 4  -2.40069932535531757600e-02
569 8  -6.05596675402895849583e-03
569 7  -2.63080681951462537482e-02
569 6   2.88955103677194652390e-02
569 1   1.21785881559044826400e-02
569 5   1.99822638898753332515e-02
569 2   2.26325553252033212503e-02
569 3   1.13384511922032076014e-02
569 4  -1.65724227307984181556e-02
570 6   1.50465749571988688382e-02
570 7  -1.37449866965360621707e-02
570 8  -3.01096761492127169835e-03
570 5   1.05669683111154003030e-02
570 2   1.15609779435799329972e-02
570 1   6.12069739692082826626e-03
570 3   5.72163060836233805517e-03
570 4  -8.45937527423592898479e-03
571 6   1.31902605360047411182e-02
571 7  -1.41589429761940794467e-02
571 8   6.29432274673746156024e-03
571 5   1.13321634825691765908e-02
571 2  -1.22075198128987604668e-02
571 1   5.85995991897361474116e-03
571 4   1.02698055211494256034e-02
571 3   3.68334350006059400850e-03
572 4   2.01191639976271777202e-02
572 7  -2.69865189246363545994e-02
572 8   1.21399895941304760555e-02
572 6   2.52463711827806309984e-02
572 5   2.15492436545084257993e-02
572 1   1.16597887193684822404e-02
572 2  -2.39347991847184624059e-02
572 3   7.37302550541450024690e-03
573 7  -3.72748140205242245449e-02
573 6   3.51374313820924655261e-02
573 8   1.71242283156385309562e-02
573 5   2.96392108883383569029e-02
573 2  -3.47210582998959751966e-02
573 1   1.73399723092549501446e-02
573 4   2.91448415361749320340e-02
573 3   1.10735126042468285529e-02
574 4   3.69773258379132926943e-02
574 7  -4.40514427459073737436e-02
574 8   2.09029583873199531485e-02
574 6   4.20295770242917893222e-02
574 5   3.47866827169967599009e-02
574 1   2.28422243184714032771e-02
574 2  -4.41436439307438532875e-02
574 3   1.47856207326342997677e-02
575 8   2.32277210049374738254e-02
575 7  -4.66699126546824966111e-02
575 6   4.53617109456497039077e-02
575 4   4.32959540752755958626e-02
575 5   3.64484646852784241466e-02
575 1   2.81100841956581463943e-02
575 2  -5.18351385859980653970e-02
575 3   1.85049188190589825043e-02
576 8   2.39644505619382650052e-02
576 7  -4.48699422575795647816e-02
576 5   3.44041021318801584772e-02
576 6   4.48962384158900981723e-02
576 2  -5.74982143890262337171e-02
576 1   3.30894965699185389374e-02
576 3   2.22203962014307261630e-02
576 4   4.78420408658484577757e-02
577 7  -3.88021577960558292086e-02
577 8   2.31025303186779690234e-02
577 5   2.87767987350546622372e-02
577 6   4.07401615639337369434e-02
577 2  -6.09176254977476100416e-02
577 1   3.77293659320729266038e-02
577 3   2.59134639083057338738e-02
577 4   5.04294688823212350348e-02
578 6   3.33346050933563467500e-02
578 7  -2.90148699714562544050e-02
578 8   2.07534343514969750466e-02
578 5   2.00227759781479199008e-02
578 2  -6.19688499444711951569e-02
578 1   4.19820809437267475350e-02
578 4   5.09523085177312276550e-02
578 3   2.95573455657784436856e-02
579 4   4.93891546560237260088e-02
579 7  -1.64041192349082022572e-02
579 8   1.71391758096617226326e-02
579 6   2.34137407758939382341e-02
579 5   8.89004272929070672726e-03
579 1   4.58040029940277731990e-02
579 2  -6.06230288457300925398e-02
579 3   3.31168969257486789370e-02
580 7  -2.13155775478842584095e-03
580 6   1.19368845391543184492e-02
580 8   1.25716753579188395690e-02
580 5  -3.64964965890947129132e-03
580 2  -5.69480023991130318572e-02
580 1   4.91559139908681747011e-02
580 4   4.58040030000059841808e-02
580 3   3.65488745047540322664e-02
581 4   4.03436300797665528539e-02
581 7   1.24823027394590866518e-02
581 8   7.42495314115124410009e-03
581 6   8.78020943426167009853e-11
581 5  -1.64894313333749757688e-02
581 1   5.20034187915771606292e-02
581 2  -5.11054017461785303755e-02
581 3   3.98026543428166568184e-02
582 8   2.10266204005021568185e-03
582 7   2.60796774314297485908e-02
582 6  -1.12652687250006273978e-02
582 4   3.32315842042676043433e-02
582 5  -2.84883934819841720676e-02
582 1   5.43172981436263052624e-02
582 2  -4.33439171026074321347e-02
582 3   4.28213822474148783637e-02
583 8  -2.99613517055499940789e-03
583 7   3.73907579914076887428e-02
583 5  -3.85758568247133309947e-02
583 6  -2.07957713166483718070e-02
583 2  -3.39890189358241362472e-02
583 1   5.60738085137018615889e-02
583 3   4.55435178955686664759e-02
583 4   2.47590333673323725883e-02
584 7   4.53511080422047963001e-02
584 8  -7.50992045585587020273e-03
584 6  -2.76946707715028106467e-02
584 4   1.52728447957306209815e-02
584 5  -4.58492692656627537362e-02
584 1   5.72549257284811347057e-02
584 2  -2.34295540059073284511e-02
584 3   4.79047176182573197778e-02
585 8  -1.11435336491289005423e-02
585 7   4.92003988889323159994e-02
585 5  -4.96567565343179959103e-02
585 6  -3.13139358358193176102e-02
585 2  -1.21017658417309457997e-02
585 1   5.78485299270442288044e-02
585 3   4.98399853189719216351e-02
585 4   5.16138416419268872271e-03
586 7   4.85533841251120160121e-02
586 8  -1.36903792100605339876e-02
586 6  -3.13139358341209400605e-02
586 5  -4.96567565370821251136e-02
586 2  -4.71394472543512166405e-04
586 1   5.78485299270442010489e-02
586 3   5.12860084270757021763e-02
586 4  -5.16138414097285641580e-03
587 7   4.34365526114985495143e-02
587 8  -1.50461889817037272610e-02
587 4  -1.52728447724751574544e-02
587 6  -2.76946707664782708347e-02
587 5  -4.58492692738403720409e-02
587 1   5.72549257284811416446e-02
587 2   1.09854113312895466242e-02
587 3   5.21835865866231013444e-02
588 8  -1.52132909411342304162e-02
588 7   3.42870440189506353601e-02
588 1   5.60738085137020003668e-02
588 6  -2.07957713085045320378e-02
588 5  -3.85758568379698102424e-02
588 2   2.18015876448900206008e-02
588 3   5.24800553258849347693e-02
588 4  -2.47590333440290549794e-02
589 5  -2.84883934997770607578e-02
589 7   2.19138713331864902478e-02
589 8  -1.42952091806917546551e-02
589 6  -1.12652687140680930061e-02
589 2   3.15382567330910329462e-02
589 1   5.43172981436264440402e-02
589 3   5.21316054822747176889e-02
589 4  -3.32315841809557241393e-02
590 8  -1.24823027531305048160e-02
590 7   7.42495310802177271164e-03
590 6   1.01075028204464029510e-10
590 1   5.20034187915770912403e-02
590 5  -1.64894313549762763782e-02
590 2   3.98026543493886497682e-02
590 3   5.11054017490782386268e-02
590 4  -4.03436300565447256150e-02
591 6   1.19368845542231986206e-02
591 7  -7.87340242985280942822e-03
591 8  -1.00299598124601891530e-02
591 5  -3.64964968343601918466e-03
591 2   4.62641494585283516439e-02
591 1   4.91559139908681122511e-02
591 3   4.93814102755900444230e-02
591 4  -4.58040029770571052725e-02
592 6   2.34137407921400121646e-02
592 7  -2.25953871567877058457e-02
592 8  -7.23152503562170170109e-03
592 5   8.89004270284202667562e-03
592 2   5.06677011500201238126e-02
592 1   4.58040029940278495268e-02
592 4  -4.93891546336094403036e-02
592 3   4.69538555389403949869e-02
593 4  -5.09523084961923250491e-02
593 7  -3.54020899032637670345e-02
593 8  -4.38859281158084178071e-03
593 6   3.33346051101157878072e-02
593 5   2.00227759508615418826e-02
593 1   4.19820809437266573294e-02
593 2   5.28442026272563647460e-02
593 3   4.38322403099276267091e-02
594 7  -4.51238362031691209175e-02
594 6   4.07401615805231265277e-02
594 8  -1.78150561585060907520e-03
594 5   2.87767987080491324803e-02
594 2   5.27172897877103141528e-02
594 1   3.77293659320730168094e-02
594 4  -5.04294688620615313979e-02
594 3   4.00418789153562035277e-02
595 4  -4.78420408473150052253e-02
595 7  -5.08672688836875608320e-02
595 8   3.57161210206994109151e-04
595 6   4.48962384316303822485e-02
595 5   3.44041021062615262616e-02
595 1   3.30894965699185389374e-02
595 2   5.03063368268404711992e-02
595 3   3.56239125009779819542e-02
596 8   1.86366343437259973301e-03
596 7  -5.20973562440253390449e-02
596 6   4.53617109598961620875e-02
596 4  -4.32959540589287622536e-02
596 5   3.64484646620948787854e-02
596 1   2.81100841956579867997e-02
596 2   4.57255175670025978962e-02
596 3   3.06347948789541454917e-02
597 8   2.65677962305404906374e-03
597 7  -4.86868031215747093521e-02
597 5   3.47866826971964041015e-02
597 6   4.20295770364589524326e-02
597 2   3.91789724335966441093e-02
597 1   2.28422243184714796049e-02
597 3   2.51452580017840730819e-02
597 4  -3.69773258242008379115e-02
598 7  -4.09283189855939658064e-02
598 8   2.74292905791957914233e-03
598 6   3.51374313916811634173e-02
598 4  -2.91448415254966543275e-02
598 5   2.96392108727314487759e-02
598 1   1.73399723092550091252e-02
598 2   3.09522805718365490169e-02
598 3   1.92387863156488446437e-02
599 8   2.21234192223393249729e-03
599 7  -2.95085935579651841010e-02
599 5   2.15492436437336384869e-02
599 6   2.52463711894001137381e-02
599 2   2.14005879847071131539e-02
599 1   1.16597887193685117307e-02
599 3   1.30096483939459318241e-02
599 4  -2.01191639903147388713e-02
600 7  -1.54463332470406774360e-02
600 8   1.22676572120517944804e-03
600 6   1.31902605393834655018e-02
600 5   1.13321634770679260940e-02
600 2   1.09338795768213672271e-02
600 1   5.85995991897354621958e-03
600 3   6.56055156239211678670e-03
600 4  -1.02698055174313233884e-02
601 7  -1.71296321444737199846e-02
601 8   2.99609830428002998221e-03
601 4   1.16597887196802311310e-02
601 6   1.11229157734941529884e-02
601 5   1.20567557392300128694e-02
601 1   5.53909132246592147975e-03
601 2  -1.16601447682157261659e-02
601 3   4.45535401017837975196e-03
602 8   5.65272386363595107095e-03
602 7  -3.27045371013114163916e-02
602 1   1.10213440723591661607e-02
602 6   2.11875858111823835161e-02
602 5   2.30456832699487725036e-02
602 2  -2.28651029406788802723e-02
602 3   8.90670801454711280609e-03
602 4   2.28422243192276525070e-02
603 5   3.19965068807485861213e-02
603 7  -4.53119170024382511563e-02
603 8   7.66418831802961799532e-03
603 6   2.92332185442248995710e-02
603 2  -3.31780957062320080997e-02
603 1   1.63905029177779035243e-02
603 3   1.33483951147700449086e-02
603 4   3.30894965713347949388e-02
604 8   8.78916493668002903050e-03
604 7  -5.38098421857347852804e-02
604 6   3.44849880916399537112e-02
604 1   2.15914730233226562217e-02
604 5   3.81251121992657246440e-02
604 2  -4.21984085416116441736e-02
604 3   1.77715016552249249759e-02
604 4   4.19820809460182478579e-02
605 4   4.91559139941704775767e-02
605 7  -5.74313995896612583536e-02
605 8   8.87515018244063730313e-03
605 6   3.64254807629374316447e-02
605 5   4.09050880080334619548e-02
605 1   2.65708853976660726304e-02
605 2  -4.95775758857320281159e-02
605 3   2.21624576580519185021e-02
606 8   7.87447068903360768155e-03
606 7  -5.58545222098598415084e-02
606 5   4.01156429946042045187e-02
606 6   3.48425194809421842623e-02
606 2  -5.50334336464021189883e-02
606 1   3.12776445316225795712e-02
606 3   2.65018734744765678546e-02
606 4   5.43172981479374261671e-02
607 7  -4.92311157563412732374e-02
607 8   5.85028480412694024820e-03
607 6   2.98489758371367312761e-02
607 5   3.58615062008045340503e-02
607 2  -5.83614664212007486221e-02
607 1   3.56634527072166307438e-02
607 3   3.07636879183006972660e-02
607 4   5.72549257336685615827e-02
608 7  -3.81728279122860378325e-02
608 8   2.97196154162000184679e-03
608 4   5.78485299328858754153e-02
608 6   2.18727489880725066429e-02
608 5   2.85629894726353167345e-02
608 1   3.96833055976267765064e-02
608 2  -5.94429869755277104360e-02
608 3   3.49146796440173157183e-02
609 8  -4.99787186440107185532e-04
609 7  -2.36947776480155927747e-02
609 1   4.32959540724770219899e-02
609 6   1.16178271402262930923e-02
609 5   1.89171268007921056231e-02
609 2  -5.82498150936543238054e-02
609 3   3.89143777360241027719e-02
609 4   5.60738085199770502909e-02
610 5   7.83345808041472149719e-03
610 7  -7.12241275853053249639e-03
610 8  -4.23668467195543671511e-03
610 6  -4.92628712092312479700e-11
610 2  -5.48452660993424476188e-02
610 1   4.64643274697358193981e-02
610 3   4.27153900432162003664e-02
610 4   5.20034187981538442713e-02
611 8  -7.87340240205415195507e-03
611 7   1.00299598084242057999e-02
611 6  -1.19368845082550405212e-02
611 1   4.91559139908682718456e-02
611 5  -3.64964979440766642063e-03
611 2  -4.93814102708651780915e-02
611 3   4.62641494496356803223e-02
611 4   4.58040030009304113823e-02
612 6  -2.31164397979584518295e-02
612 7   2.61978336458672904363e-02
612 8  -1.10419927451775572863e-02
612 5  -1.44604667356642690307e-02
612 2  -4.20927168735668946753e-02
612 1   5.13430943158856012420e-02
612 3   4.95020597804902567907e-02
612 4   3.77293659394853653222e-02
613 6  -3.25282792239144635804e-02
613 7   3.99096441417542968644e-02
613 8  -1.34070452775297797865e-02
613 5  -2.35923897929558000486e-02
613 2  -3.32863443599796804406e-02
613 1   5.30034250149412286546e-02
613 4   2.81100842038870743500e-02
613 3   5.23670051750868628671e-02
614 4   1.73399723186363138860e-02
614 7   4.99212768053111863309e-02
614 8  -1.46982845310803626748e-02
614 6  -3.93205358936284388172e-02
614 5  -3.01964243857438842389e-02
614 1   5.41198688482884965323e-02
614 2  -2.33294753927448250685e-02
614 3   5.47951702608627730373e-02
615 7   5.53296244303971632150e-02
615 6  -4.28778802249907484145e-02
615 8  -1.47375441894023965356e-02
615 5  -3.36591723387518540478e-02
615 2  -1.26342161182277524373e-02
615 1   5.46809695914174040410e-02
615 4   5.85995992977489648518e-03
615 3   5.67231040278714376823e-02
616 4  -5.85995990664241531154e-03
616 7   5.56548001803579897584e-02
616 8  -1.34575541995046940591e-02
616 6  -4.28778802240391831990e-02
616 5  -3.36591723414714077967e-02
616 1   5.46809695914174664910e-02
616 2  -1.64067861641050620307e-03
616 3   5.80899485392154038554e-02
617 8  -1.09107175015495331399e-02
617 7   5.08834913220701720582e-02
617 6  -3.93205358908140095719e-02
617 4  -1.73399722954828104660e-02
617 5  -3.01964243937912490967e-02
617 1   5.41198688482884965323e-02
617 2   9.20106039569638066433e-03
617 3   5.88397450200027205547e-02
618 8  -7.26696464638260705010e-03
618 7   4.14695042507416608557e-02
618 5  -2.35923898060015728440e-02
618 6  -3.25282792193515302159e-02
618 2   1.94493857577298819017e-02
618 1   5.30034250149413188602e-02
618 3   5.89237248161657220513e-02
618 4  -2.81100841807132920125e-02
619 7   2.82914784921407778950e-02
619 6  -2.31164397918353532735e-02
619 5  -1.44604667531704426248e-02
619 8  -2.80077413311784076747e-03
619 1   5.13430943158856914477e-02
619 2   2.86892005862057035415e-02
619 3   5.83024914310200301215e-02
619 4  -3.77293659163397132605e-02
620 8   2.13155773469723844663e-03
620 6  -1.19368845008223714577e-02
620 7   1.25716753273723783751e-02
620 5  -3.64964981566039993466e-03
620 2   3.65488745136455309148e-02
620 1   4.91559139908684661346e-02
620 3   5.69480024038360871375e-02
620 4  -4.58040029779182011893e-02
621 4  -5.20034187754570553786e-02
621 6  -4.08267221413199923264e-11
621 7  -4.23668469753003384265e-03
621 8   7.12241274796710129025e-03
621 5   7.83345805628209677918e-03
621 1   4.64643274697357916425e-02
621 2   4.27153900544493397851e-02
621 3   5.48452661058432475172e-02
622 8   1.17484047352911600420e-02
622 6   1.16178271493206329568e-02
622 7  -2.05831790897257095596e-02
622 5   1.89171267747676626059e-02
622 2   4.69470677035926098331e-02
622 1   4.32959540724771399511e-02
622 3   5.19936783558716114628e-02
622 4  -5.60738084978534626068e-02
623 4  -5.78485299116653986506e-02
623 6   2.18727489974537663009e-02
623 7  -3.49627480665983467190e-02
623 8   1.56078055497871417967e-02
623 5   2.85629894457874941582e-02
623 1   3.96833055976267487508e-02
623 2   4.90833497233454305042e-02
623 3   4.84079367169562360673e-02
624 8   1.83564679606019777458e-02
624 6   2.98489758464236636104e-02
624 7  -4.60539756691653381915e-02
624 4  -5.72549257137443326493e-02
624 5   3.58615061742335525241e-02
624 1   3.56634527072166029882e-02
624 2   4.90512432035443562972e-02
624 3   4.41184859143727986508e-02
625 5   4.01156429693960564498e-02
625 7  -5.28403943700817974038e-02
625 8   1.97389883853514476464e-02
625 6   3.48425194897550860595e-02
625 2   4.68681599517210070727e-02
625 1   3.12776445316225240600e-02
625 3   3.91714653946027210885e-02
625 4  -5.43172981297391083144e-02
626 8   1.96122676687400902817e-02
626 7  -5.47036827461010663476e-02
626 6   3.64254807709155012385e-02
626 4  -4.91559139781409942804e-02
626 5   4.09050879852235690914e-02
626 1   2.65708853976660379359e-02
626 2   4.26410384709329723374e-02
626 3   3.36281489204085792810e-02
627 8   1.79593033596448792277e-02
627 7  -5.14802093877248789777e-02
627 5   3.81251121797842248973e-02
627 6   3.44849880984548773366e-02
627 2   3.65617856666055202064e-02
627 1   2.15914730233228158163e-02
627 3   2.75638855123703091499e-02
627 4  -4.19820809325883725904e-02
628 7  -4.34757436918561390726e-02
628 8   1.48919211311028532041e-02
628 6   2.92332185495975324652e-02
628 5   3.19965068653934384124e-02
628 2   2.88992267487232952494e-02
628 1   1.63905029177779139327e-02
628 3   2.10665702210377295267e-02
628 4  -3.30894965608884844555e-02
629 7  -3.14369964305533725057e-02
629 8   1.06421468342746093627e-02
629 4  -2.28422243120779237813e-02
629 6   2.11875858148924262059e-02
629 5   2.30456832593462154768e-02
629 1   1.10213440723592355497e-02
629 2   1.99878948859326596721e-02
629 3   1.42346913742393763047e-02
630 8   5.54294386832652075797e-03
630 7  -1.64826173785484995926e-02
630 1   5.53909132246586943804e-03
630 6   1.11229157753880703030e-02
630 5   1.20567557338172783726e-02
630 2   1.02141216640163519369e-02
630 3   7.17501735853929428766e-03
630 4  -1.16597887160468406675e-02
631 5   1.26195940079981399479e-02
631 7  -1.93826040121776524416e-02
631 8  -3.60120601885409203236e-04
631 6   8.97947020256212140310e-03
631 2  -1.09709397584882399623e-02
631 1   5.16138415340164358192e-03
631 3   5.00324384830162696008e-03
631 4   1.25724187980460755387e-02
632 8  -9.39280180103611839725e-04
632 7  -3.70514439608608039944e-02
632 6   1.69870675617621418041e-02
632 1   1.02698055209054870535e-02
632 5   2.42299625662761759781e-02
632 2  -2.15166452051013083746e-02
632 3   9.99402087839231477451e-03
632 4   2.46301212933208481248e-02
633 4   3.56794637289665483859e-02
633 7  -5.14473230806039918961e-02
633 8  -1.92610736420674075707e-03
633 6   2.31415822304968168965e-02
633 5   3.39129265105920160717e-02
633 1   1.52728447864688109126e-02
633 2  -3.12290457472925164772e-02
633 3   1.49584007237090425152e-02
634 8  -3.45162186485117915627e-03
634 7  -6.13061093919181898659e-02
634 5   4.09240639583210927266e-02
634 6   2.67347989979800464144e-02
634 2  -3.97336980648610518796e-02
634 1   2.01191639970212769739e-02
634 3   1.98796060941473472228e-02
634 4   4.52680847274432168748e-02
635 7  -6.57723796786364583999e-02
635 8  -5.56814756537929791969e-03
635 6   2.72979305419665634058e-02
635 5   4.47595150908020808500e-02
635 2  -4.67048779693982549222e-02
635 1   2.47590333593382984356e-02
635 3   2.47367862570141011647e-02
635 4   5.30034250184864483280e-02
636 7  -6.44758806897375719158e-02
636 8  -8.23664270959177831355e-03
636 4   5.85687988617410726366e-02
636 6   2.46460438040355285516e-02
636 5   4.52007684203586321270e-02
636 1   2.91448415350128442469e-02
636 2  -5.18786851487833752805e-02
636 3   2.95040172218846881436e-02
637 8  -1.13239315025352831057e-02
637 7  -5.75638762897353953307e-02
637 1   3.32315841972171607810e-02
637 6   1.88963899763200625370e-02
637 5   4.23333353373449572388e-02
637 2  -5.50636266515897240814e-02
637 3   3.41495885807576241011e-02
637 4   6.17363591982026740923e-02
638 5   3.65376141139608923147e-02
638 7  -4.56864796664857297781e-02
638 8  -1.46103509898143652662e-02
638 6   1.04589428120962397994e-02
638 2  -5.61482480862263017007e-02
638 1   3.69773258359974085763e-02
638 3   3.86356244090593006768e-02
638 4   6.23764257355575724162e-02
639 8  -1.78072988550735111790e-02
639 7  -2.99363634604114005333e-02
639 6  -1.65060608161716483804e-10
639 1   4.03436300733504213389e-02
639 5   2.84527945974874900414e-02
639 2  -5.51055022525765297869e-02
639 3   4.29180709594861736766e-02
639 4   6.04627940746087222390e-02
640 8  -2.05831790704624276178e-02
640 6  -1.16178273632714813141e-02
640 7  -1.17484047336328077671e-02
640 5   1.89171266691266042048e-02
640 1   4.32959540724770566844e-02
640 2  -5.19936783478683536841e-02
640 3   4.69470676904851225153e-02
640 4   5.60738085204428582387e-02
641 8  -2.25953871357457078406e-02
641 6  -2.34137408859237568237e-02
641 7   7.23152504399609662861e-03
641 5   8.89004246374128573316e-03
641 2  -4.69538555326293807757e-02
641 1   4.58040029940277731990e-02
641 3   5.06677011392133030965e-02
641 4   4.93891546573792319941e-02
642 4   4.06825030000211723680e-02
642 6  -3.43778465440246969176e-02
642 7   2.52966065512443237517e-02
642 8  -2.35253368652779890069e-02
642 5  -6.36714401770725876503e-04
642 1   4.78420408621504575364e-02
642 2  -4.02039867505371920076e-02
642 3   5.40211239860079531216e-02
643 8  -2.31131685233292270831e-02
643 6  -4.35630435786301256629e-02
643 7   4.08342306902505919330e-02
643 5  -8.73079230243130680056e-03
643 2  -3.20298564517981498856e-02
643 1   4.93891546504268558193e-02
643 3   5.69460050818531640648e-02
643 4   3.03103048902532874742e-02
644 4   1.86971993373917927395e-02
644 6  -5.01712934173265678872e-02
644 7   5.24720939180513823441e-02
644 8  -2.11887301901160854389e-02
644 5  -1.46053490164680162960e-02
644 1   5.04294688778217023439e-02
644 2  -2.27732836356628678964e-02
644 3   5.93802609170902898073e-02
645 8  -1.76956981171194974167e-02
645 6  -5.36263609304397925737e-02
645 7   5.92019050835607824057e-02
645 4   6.31862824728087867782e-03
645 5  -1.76916780925630186261e-02
645 1   5.09523085126011160417e-02
645 2  -1.28180541753162343527e-02
645 3   6.12630056429317240707e-02
646 5  -1.76916780951906389696e-02
646 7   6.04694457437256679966e-02
646 8  -1.27062751621489413573e-02
646 6  -5.36263609302600613438e-02
646 2  -2.57415911228771462568e-03
646 1   5.09523085126010535917e-02
646 3   6.25366458831370236604e-02
646 4  -6.31862822522237868594e-03
647 8  -6.42472888682442573594e-03
647 7   5.62228226352530849330e-02
647 5  -1.46053490242443462233e-02
647 6  -5.01712934167933832796e-02
647 2   7.53901528593542598344e-03
647 1   5.04294688778217856107e-02
647 3   6.31490386566247174915e-02
647 4  -1.86971993153173150770e-02
648 6  -4.35630435777649080431e-02
648 7   4.69145921908617966056e-02
648 8   8.20971181339305317720e-04
648 5  -8.73079231503767067002e-03
648 2   1.71098572489751521442e-02
648 1   4.93891546504268072471e-02
648 4  -3.03103048681684847376e-02
648 3   6.30556261172481868904e-02
649 4  -4.06825029779779787087e-02
649 7   3.34576701221307240552e-02
649 8   8.59907475076213990983e-03
649 6  -3.43778465428635840451e-02
649 5  -6.36714418687440433450e-04
649 1   4.78420408621504505975e-02
649 2   2.57513560768292230907e-02
649 3   6.22214597142240130601e-02
650 7   1.71391757849757644938e-02
650 6  -2.34137408845168544513e-02
650 8   1.64041192075650432702e-02
650 5   8.89004244320517993116e-03
650 2   3.31168969365537232963e-02
650 1   4.58040029940277662601e-02
650 4  -4.93891546354795624163e-02
650 3   6.06230288520393512108e-02
651 4  -5.60738084988626275806e-02
651 7  -4.99787206725473237383e-04
651 8   2.36947776300505952296e-02
651 6  -1.16178273616761671555e-02
651 5   1.89171266458080973571e-02
651 1   4.32959540724770081122e-02
651 2   3.89143777491297998550e-02
651 3   5.82498151016559162496e-02
652 8   2.99363634544187531827e-02
652 7  -1.78072988697467946007e-02
652 6  -1.63343061080569386387e-10
652 4  -6.04627940535925612053e-02
652 5   2.84527945723436863357e-02
652 1   4.03436300733504213389e-02
652 2   4.29180709743831323433e-02
652 3   5.51055022619704459874e-02
653 8   3.46443857850012096322e-02
653 7  -3.31735333408749097361e-02
653 5   3.65376140880200109273e-02
653 6   1.04589428138662666329e-02
653 2   4.49777456655022223053e-02
653 1   3.69773258359974849041e-02
653 3   5.12087847333705450947e-02
653 4  -6.23764257154177312326e-02
654 7  -4.51793297218261308279e-02
654 8   3.74253850270546140067e-02
654 6   1.88963899780729971400e-02
654 4  -6.17363591793074414915e-02
654 5   4.23333353116721045062e-02
654 1   3.32315841972172093532e-02
654 2   4.50246775589129288875e-02
654 3   4.65937312659345237442e-02
655 8   3.80114508276686163812e-02
655 7  -5.27267586715354855120e-02
655 5   4.52007683960026704351e-02
655 6   2.46460438057013626889e-02
655 2   4.30743025862390035985e-02
655 1   2.91448415350129101664e-02
655 3   4.13096776042732177769e-02
655 4  -5.85687988444967416735e-02
656 7  -5.51396926468782008768e-02
656 8   3.62853205949568782818e-02
656 6   2.72979305434784026707e-02
656 5   4.47595150687630227715e-02
656 2   3.92254068157696159092e-02
656 1   2.47590333593383539468e-02
656 3   3.54206392134527592308e-02
656 4  -5.30034250033059040064e-02
657 7  -5.22251608041491011125e-02
657 8   3.22937350127601094374e-02
657 4  -4.52680847147330436830e-02
657 6   2.67347989992729843933e-02
657 5   4.09240639394992944400e-02
657 1   2.01191639970212596267e-02
657 2   3.36558878149677415115e-02
657 3   2.90042534293006824819e-02
658 8   2.62477191182729566177e-02
658 7  -4.42898880402855799066e-02
658 1   1.52728447864686357055e-02
658 6   2.31415822315180381985e-02
658 5   3.39129264957563694716e-02
658 2   2.66152629583661960722e-02
658 3   2.21502783035760347774e-02
658 4  -3.56794637190808797134e-02
659 5   2.42299625560317144490e-02
659 7  -3.21105487007385809184e-02
659 8   1.85095761389493518312e-02
659 6   1.69870675624676087390e-02
659 2   1.84142335315596039624e-02
659 1   1.02698055209055998105e-02
659 3   1.49586923898439149577e-02
659 4  -2.46301212865565992416e-02
660 8   9.56752708948995465865e-03
660 7  -1.68605293656790798662e-02
660 6   8.97947020292259520668e-03
660 1   5.16138415340165659234e-03
660 5   1.26195940027695636954e-02
660 2   9.41173414201695174297e-03
660 3   7.53745505633510604754e-03
660 4  -1.25724187946090991408e-02
661 8  -3.44952635458089336071e-03
661 6   6.89214559834441364145e-03
661 7  -2.07780125918791552797e-02
661 5   1.29046756847378367439e-02
661 1   4.73071419845218828909e-03
661 2  -1.01452408099597917585e-02
661 3   5.30742706133810818181e-03
661 4   1.29703325736162927012e-02
662 8  -6.99901020162006608227e-03
662 6   1.29072426025921786069e-02
662 7  -3.97560076370988904615e-02
662 5   2.48706060710395769620e-02
662 2  -1.98998084947554915169e-02
662 1   9.41288486753466199786e-03
662 3   1.05960223598358070640e-02
662 4   2.54096582077347615813e-02
663 4   3.68087094493553881880e-02
663 6   1.72511995305252574529e-02
663 7  -5.52947375298772983432e-02
663 8  -1.07221952356404762186e-02
663 5   3.50426360648834409051e-02
663 1   1.39984666001815027947e-02
663 2  -2.88887709419207820705e-02
663 3   1.58456886911557855158e-02
664 8  -1.46434997705483724295e-02
664 6   1.92882043881457514167e-02
664 7  -6.60619257729447018068e-02
664 5   4.27251497490765616560e-02
664 2  -3.67680362235586963293e-02
664 1   1.84404051225214374310e-02
664 3   2.10338706716772516625e-02
664 4   4.67008078013262245554e-02
665 4   5.46809695948750340566e-02
665 6   1.86014781088434284773e-02
665 7  -7.11506596102375321600e-02
665 8  -1.87207964777878384244e-02
665 5   4.74434374922236765104e-02
665 1   2.26931201344063269987e-02
665 2  -4.32381943369368332286e-02
665 3   2.61345042172002814396e-02
666 8  -2.28362762199242827488e-02
666 6   1.50338616647996154568e-02
666 7  -7.01592707840935497776e-02
666 4   6.04224860685658449189e-02
666 5   4.89848775065444622112e-02
666 1   2.67129730249676747289e-02
666 2  -4.80565373496977879531e-02
666 3   3.11171715019209517428e-02
667 5   4.74161788326311964270e-02
667 7  -6.32255128451364029063e-02
667 8  -2.67967661900466343206e-02
667 6   8.70448992859862262506e-03
667 2  -5.10467682830114746761e-02
667 1   3.04587146638200280402e-02
667 3   3.59465156145610184590e-02
667 4   6.36902988634040906346e-02
668 8  -3.03439025357938249594e-02
668 7  -5.10120092979281236634e-02
668 5   4.30751273793556210823e-02
668 6  -2.46762191429142814869e-10
668 2  -5.21060035854275654943e-02
668 1   3.38919086729563973082e-02
668 3   4.05819576606845922040e-02
668 4   6.43506233396521354351e-02
669 7  -3.46443857779690153609e-02
669 8  -3.31735333324019165957e-02
669 4   6.23764257357056067788e-02
669 6  -1.04589432326253391897e-02
669 5   3.65376139955611162202e-02
669 1   3.69773258359975334764e-02
669 2  -5.12087847229973913699e-02
669 3   4.49777456494505623041e-02
670 8  -3.49627480543106758382e-02
670 7  -1.56078055348576761469e-02
670 6  -2.18727493191104502279e-02
670 4   5.78485299334740993293e-02
670 5   2.85629892248932260035e-02
670 1   3.96833055976266863007e-02
670 2  -4.84079367078413813630e-02
670 3   4.90833497089642051270e-02
671 8  -3.54020898896839353309e-02
671 7   4.38859283341489284092e-03
671 5   2.00227756003334318724e-02
671 6  -3.33346053281477691654e-02
671 2  -4.38322403023878176542e-02
671 1   4.19820809437267891684e-02
671 3   5.28442026150774749049e-02
671 4   5.09523085191447219766e-02
672 2  -3.76810148940113082139e-02
672 7   2.35669484066919586451e-02
672 6  -4.39122114760062132177e-02
672 8  -3.42298901180741674266e-02
672 5   1.18192929105967372422e-02
672 1   4.38500633285208649137e-02
672 3   5.62027689451162493217e-02
672 4   4.19700936077299358029e-02
673 5   4.80167499954975429688e-03
673 7   4.02414435804403433639e-02
673 8  -3.12653317353079399088e-02
673 6  -5.27320722083383652823e-02
673 2  -3.02158353039257976391e-02
673 1   4.52680847249703338653e-02
673 3   5.90999110380546130439e-02
673 4   3.12696181331030761963e-02
674 8  -2.64368386412497692606e-02
674 7   5.29699309126441669759e-02
674 6  -5.90586222569624841316e-02
674 3   6.14765059926321785766e-02
674 5  -3.13006307277582506571e-04
674 1   4.62215943146694063781e-02
674 2  -2.17497229076257687919e-02
674 4   1.92889608184738693686e-02
675 7   6.06826365132168976668e-02
675 6  -6.23609405406907527092e-02
675 5  -3.00626533645519935720e-03
675 3   6.32752557545502580805e-02
675 2  -1.26342546095591003880e-02
675 1   4.67008077989311126688e-02
675 8  -1.98027032190982860138e-02
675 4   6.51861118199094369263e-03
676 8  -1.15614845930181609629e-02
676 7   6.27762813689725501787e-02
676 5  -3.00626533894410947687e-03
676 6  -6.23609405412285169867e-02
676 2  -3.24511821088875997490e-03
676 1   4.67008077989309947076e-02
676 3   6.44426224511816525542e-02
676 4  -6.51861116176475144379e-03
677 7   5.91651514137606082677e-02
677 8  -2.05057922150321883525e-03
677 6  -5.90586222585549533437e-02
677 5  -3.13006314641021900387e-04
677 2   6.03329394104746598304e-03
677 1   4.62215943146692676002e-02
677 3   6.49308139528048666733e-02
677 4  -1.92889607982338028014e-02
678 6  -5.27320722109193631977e-02
678 7   5.02846066723770246387e-02
678 8   8.26759215321412263555e-03
678 4  -3.12696181128546135675e-02
678 5   4.80167498761483943492e-03
678 1   4.52680847249703408042e-02
678 2   1.48236220205998515259e-02
678 3   6.46997404880140097871e-02
679 6  -4.39122114794738560573e-02
679 7   3.70468858134651510272e-02
679 8   1.88312156918139551876e-02
679 5   1.18192928945797526286e-02
679 2   2.27709622315878344734e-02
679 1   4.38500633285207885859e-02
679 3   6.37188622092290934962e-02
679 4  -4.19700935875193248403e-02
680 6  -3.33346053323600038931e-02
680 7   2.07534343349541142154e-02
680 8   2.90148699370551543808e-02
680 4  -5.09523084990659569371e-02
680 5   2.00227755808903180867e-02
680 1   4.19820809437267059017e-02
680 2   2.95573455779566604540e-02
680 3   6.19688499520093805106e-02
681 8   3.81728278870199222439e-02
681 6  -2.18727493238976000711e-02
681 7   2.97196152874878169806e-03
681 4  -5.78485299136875727455e-02
681 5   2.85629892028184187436e-02
681 1   3.96833055976267418119e-02
681 2   3.49146796583974933226e-02
681 3   5.94429869846402197942e-02
682 5   3.65376139717568867993e-02
682 7  -1.46103509979577175781e-02
682 8   4.56864796528208411130e-02
682 6  -1.04589432377890801523e-02
682 2   3.86356244251103500553e-02
682 1   3.69773258359975404153e-02
682 3   5.61482480965989280697e-02
682 4  -6.23764257164382551757e-02
683 8   5.10120092969117283621e-02
683 7  -3.03439025387206053053e-02
683 6  -2.52091646197109216134e-10
683 2   4.05819576777561377701e-02
683 5   4.30751273547968008271e-02
683 1   3.38919086729562932248e-02
683 3   5.21060035966406515096e-02
683 4  -6.43506233211884187684e-02
684 7  -4.27694888257362446082e-02
684 8   5.37243239009768322467e-02
684 6   8.70448992332481519263e-03
684 5   4.74161788083254445714e-02
684 2   4.06900890707607501562e-02
684 1   3.04587146638199204873e-02
684 3   4.73523092446885632278e-02
684 4  -6.36902988460840702167e-02
685 7  -5.07528015316952504921e-02
685 8   5.35534492397317582468e-02
685 6   1.50338616598003314839e-02
685 5   4.89848774834873088024e-02
685 2   3.89734983759769740286e-02
685 1   2.67129730249677267706e-02
685 3   4.19377582948771282512e-02
685 4  -6.04224860527572890656e-02
686 7  -5.35882482569748769263e-02
686 8   5.04101600136146188458e-02
686 4  -5.46809695809599566330e-02
686 6   1.86014781043235509495e-02
686 5   4.74434374713588111194e-02
686 1   2.26931201344063790404e-02
686 2   3.55219998724359761755e-02
686 3   3.59268880783155525327e-02
687 8   4.43984582697034349530e-02
687 7  -5.10625795041946897723e-02
687 1   1.84404051225214894727e-02
687 6   1.92882043842887637708e-02
687 5   4.27251497312575723164e-02
687 2   3.04978648646510933085e-02
687 3   2.93971502551240333745e-02
687 4  -4.67008077896733375667e-02
688 5   3.50426360508379261538e-02
688 7  -4.34725313454349462927e-02
688 8   3.58135796523831595461e-02
688 6   1.72511995274874062323e-02
688 2   2.41289631311662512714e-02
688 1   1.39984666001814056502e-02
688 3   2.24374703481456314047e-02
688 4  -3.68087094402937131665e-02
689 8   2.51254014408722296803e-02
689 7  -3.15949440483317897654e-02
689 6   1.29072426004963498880e-02
689 1   9.41288486753471577428e-03
689 5   2.48706060613420112948e-02
689 2   1.66992063009361625670e-02
689 3   1.51464377748297095161e-02
689 4  -2.54096582015349813088e-02
690 2   8.53668674239927739722e-03
690 7  -1.66122065018654563318e-02
690 8   1.29483448539909444530e-02
690 6   6.89214559727535040073e-03
690 5   1.29046756797870348227e-02
690 1   4.73071419845216573768e-03
690 3   7.63018169259328891268e-03
690 4  -1.29703325704668623319e-02
691 7  -2.12169942253771018348e-02
691 8  -5.98135491299531599219e-03
691 6   4.97898900356434897380e-03
691 5   1.28124471790134804999e-02
691 2  -9.19076373645050931360e-03
691 1   4.25150071414240066786e-03
691 3   5.35869396604483905211e-03
691 4   1.28372394096770304356e-02
692 7  -4.06257406962859113353e-02
692 8  -1.19565391111958081727e-02
692 6   9.18224045722102616418e-03
692 5   2.47687749184180086570e-02
692 2  -1.80296775603213492445e-02
692 1   8.45937527774550702964e-03
692 3   1.06944208800665383624e-02
692 4   2.51489207296226278954e-02
693 7  -5.65782050168412153912e-02
693 8  -1.78977399799329535413e-02
693 4   3.64310022800553856559e-02
693 6   1.19084425721936153914e-02
693 5   3.50881143674818055112e-02
693 1   1.25804452036116006658e-02
693 2  -2.61790457429274502077e-02
693 3   1.59831384441570419075e-02
694 8  -2.37367553255310240190e-02
694 7  -6.77323154773364077830e-02
694 1   1.65724227375931669470e-02
694 6   1.25982750452272428826e-02
694 5   4.31332293525411650248e-02
694 2  -3.33289040208471012972e-02
694 3   2.11987185712864539822e-02
694 4   4.62215943167209042386e-02
695 5   4.84657911082288089810e-02
695 7  -7.31701015261573411985e-02
695 8  -2.93517314529515606358e-02
695 6   1.08888842669728064250e-02
695 2  -3.92094666642970601789e-02
695 1   2.03943447881771433572e-02
695 3   2.63120633862188833818e-02
695 4   5.41198688513197176397e-02
696 8  -3.45614024533543312545e-02
696 7  -7.24775885447256629224e-02
696 6   6.65023890266142232719e-03
696 1   2.40069932632343448209e-02
696 5   5.08835083357543419003e-02
696 2  -4.36019362406177696245e-02
696 3   3.12904040090544108277e-02
696 4   5.98024695964184255237e-02
697 8  -3.91280524983673855255e-02
697 6  -2.87381397993308871109e-10
697 7  -6.57792970170323620938e-02
697 5   5.04357385086003986996e-02
697 1   2.73732975007181869587e-02
697 2  -4.63472359343260545406e-02
697 3   3.60968302487764680642e-02
697 4   6.30367502098662657595e-02
698 8  -4.27694888278599555376e-02
698 6  -8.70449047015684450324e-03
698 7  -5.37243238899135708286e-02
698 5   4.74161787341720389333e-02
698 2  -4.73523092331356726392e-02
698 1   3.04587146638198164039e-02
698 3   4.06900890534069789584e-02
698 4   6.36902988633680916530e-02
699 4   6.17363591982954679205e-02
699 6  -1.88963904612333595534e-02
699 7  -3.74253850076951277703e-02
699 8  -4.51793297194238163694e-02
699 5   4.23333351235174459859e-02
699 1   3.32315841972171538421e-02
699 2  -4.65937312550828430791e-02
699 3   4.50246775424372608354e-02
700 8  -4.60539756637402958317e-02
700 6  -2.98489762494801337545e-02
700 7  -1.83564679332187917493e-02
700 5   3.58615058628766539273e-02
700 2  -4.41184859046322291887e-02
700 1   3.56634527072165335992e-02
700 3   4.90512431885889998995e-02
700 4   5.72549257341537498611e-02
701 4   5.04294688835460261367e-02
701 6  -4.07401618964453246519e-02
701 7   1.78150565022142494745e-03
701 8  -4.51238361969312773425e-02
701 5   2.87767982735518193516e-02
701 1   3.77293659320730792595e-02
701 2  -4.00418789070449768208e-02
701 3   5.27172897748049359978e-02
702 8  -4.21858098311933202296e-02
702 6  -5.07260297686914357618e-02
702 7   2.12147214683476269259e-02
702 4   4.15394236519275872332e-02
702 5   2.18840703816447698649e-02
702 1   3.94081248064850481194e-02
702 2  -3.45426738387277151854e-02
702 3   5.59681737134934617628e-02
703 5   1.59415172421116593804e-02
703 7   3.82561698316988413326e-02
703 8  -3.71337205800629788222e-02
703 6  -5.90166450173862169870e-02
703 2  -2.78556517559176951282e-02
703 1   4.06825029926895995191e-02
703 3   5.87483617687147019470e-02
703 4   3.09487495356474302810e-02
704 8  -2.99834359840608563608e-02
704 7   5.14564736036540668063e-02
704 6  -6.49472168131166871508e-02
704 2  -2.02619002808953375949e-02
704 5   1.15898353964549189615e-02
704 1   4.15394236459967272634e-02
704 3   6.10029087399185238061e-02
704 4   1.90910299773999862782e-02
705 7   5.97321727510526367944e-02
705 8  -2.08897331393854759907e-02
705 6  -6.80380925871665875881e-02
705 5   9.29247587082231152333e-03
705 2  -1.20772307270326038214e-02
705 1   4.19700936009122504977e-02
705 3   6.26791027772270609164e-02
705 4   6.45172140914274539619e-03
706 7   6.24598895823945954309e-02
706 8  -1.01526156711575707425e-02
706 6  -6.80380925883039000546e-02
706 5   9.29247586852236136246e-03
706 2  -3.63919823772011893567e-03
706 1   4.19700936009122782533e-02
706 3   6.37282171682134190860e-02
706 4  -6.45172139127398857478e-03
707 7   5.95279510503268702304e-02
707 8   1.78833757023703909805e-03
707 4  -1.90910299595130547590e-02
707 6  -6.49472168164831470394e-02
707 5   1.15898353896466896340e-02
707 1   4.15394236459967966524e-02
707 2   4.70674314550333702106e-03
707 3   6.41073010464458942215e-02
708 8   1.43719689188829095883e-02
708 7   5.13409606592916054058e-02
708 1   4.06825029926894954357e-02
708 6  -5.90166450228427341695e-02
708 5   1.59415172310758829211e-02
708 2   1.26213834119993286581e-02
708 3   6.37809378050019221140e-02
708 4  -3.09487495177452123785e-02
709 5   2.18840703668324934594e-02
709 7   3.87771328038993348675e-02
709 8   2.69451466340056289273e-02
709 6  -5.07260297760155076663e-02
709 2   1.97856184950834131098e-02
709 1   3.94081248064852215918e-02
709 3   6.27228992253134609580e-02
709 4  -4.15394236340487846282e-02
710 8   3.88021577558738534064e-02
710 7   2.31025303112262804517e-02
710 6  -4.07401619053390992575e-02
710 1   3.77293659320731000761e-02
710 5   2.87767982555725831961e-02
710 2   2.59134639212096895555e-02
710 3   6.09176255060580942868e-02
710 4  -5.04294688657732914638e-02
711 8   4.92311157249021302817e-02
711 6  -2.98489762595800511846e-02
711 7   5.85028479954699618532e-03
711 5   3.58615058424628860290e-02
711 1   3.56634527072164989048e-02
711 2   3.07636879332535140286e-02
711 3   5.83614664309390698826e-02
711 4  -5.72549257166300798461e-02
712 8   5.75638762693467045950e-02
712 6  -1.88963904721277178855e-02
712 7  -1.13239315033658114601e-02
712 5   4.23333351015046724375e-02
712 2   3.41495885972296284172e-02
712 1   3.32315841972171469032e-02
712 3   5.50636266624394202229e-02
712 4  -6.17363591812223472255e-02
713 4  -6.36902988470002678900e-02
713 6  -8.70449048139705118532e-03
713 7  -2.67967661867517803476e-02
713 8   6.32255128368152119478e-02
713 5   4.74161787114633012652e-02
713 1   3.04587146638198580373e-02
713 2   3.59465156319122708384e-02
713 3   5.10467682945616521573e-02
714 8   6.57792970203406879293e-02
714 6  -2.98505610798964729770e-10
714 7  -3.91280524911554045131e-02
714 5   5.04357384861254254282e-02
714 2   3.60968302662862117192e-02
714 1   2.73732975007182494087e-02
714 3   4.63472359460926006114e-02
714 4  -6.30367501945038738453e-02
715 4  -5.98024695823904522962e-02
715 6   6.65023889211104751729e-03
715 7  -4.71937622787330368634e-02
715 8   6.49633757035239373101e-02
715 5   5.08835083144347430362e-02
715 1   2.40069932632343205348e-02
715 2   3.46121015385399966036e-02
715 3   4.10148833489101596883e-02
716 8   6.07159192296489874652e-02
716 6   1.08888842574284966380e-02
716 7  -5.02888163388021530720e-02
716 4  -5.41198688389676954569e-02
716 5   4.84657910889357626538e-02
716 1   2.03943447881770982544e-02
716 2   3.15724507969689996423e-02
716 3   3.51124950418620976333e-02
717 5   4.31332293360639357216e-02
717 7  -4.81903338735939351656e-02
717 8   5.31863876799109208671e-02
717 6   1.25982750370773541326e-02
717 2   2.71230731051405916932e-02
717 1   1.65724227375931495998e-02
717 3   2.87148118367296645292e-02
717 4  -4.62215943063728970652e-02
718 7  -4.11755780207378810354e-02
718 6   1.19084425657717853098e-02
718 5   3.50881143544927581734e-02
718 8   4.27316528340272172581e-02
718 1   1.25804452036116301561e-02
718 2   2.14680800014375623708e-02
718 3   2.19071835780093732149e-02
718 4  -3.64310022720045478817e-02
719 8   2.98969290443283769454e-02
719 6   9.18224045278743031262e-03
719 7  -2.99930536677838754933e-02
719 5   2.47687749094507581038e-02
719 2   1.48619178761467893302e-02
719 1   8.45937527774551917270e-03
719 3   1.47838867785024374174e-02
719 4  -2.51489207241136145110e-02
720 4  -1.28372394068774313414e-02
720 6   4.97898900130172572531e-03
720 7  -1.57895506214917880072e-02
720 8   1.53827026790760400254e-02
720 5   1.28124471744343725738e-02
720 1   4.25150071414245878110e-03
720 2   7.59871561035249665217e-03
720 3   7.44615741468958054067e-03
721 8  -7.72585804504321085884e-03
721 6   3.33379851771033793723e-03
721 7  -2.06495431125729503319e-02
721 5   1.22696883569692865440e-02
721 2  -8.11755595529927223564e-03
721 1   3.72866107930105083676e-03
721 3   5.15855491068295795437e-03
721 4   1.21785881560037764770e-02
722 4   2.38585834819872097401e-02
722 6   5.99785668731695181116e-03
722 7  -3.95622799530976690385e-02
722 8  -1.53618776848592694662e-02
722 5   2.37779420364715617098e-02
722 1   7.41906105023269150239e-03
722 2  -1.59259462596976868187e-02
722 3   1.02922586728845747578e-02
723 8  -2.28011273408361449244e-02
723 6   7.38759845733862226258e-03
723 7  -5.51542708955259225467e-02
723 4   3.45618055969778431580e-02
723 5   3.38294315662464595285e-02
723 1   1.10333314151743275972e-02
723 2  -2.31284248048849658264e-02
723 3   1.53753654393704516923e-02
724 5   4.18550129399424264420e-02
724 7  -6.61335519324375703532e-02
724 8  -2.99050940465545971036e-02
724 6   7.02276108009407696448e-03
724 2  -2.94525785496875178171e-02
724 1   1.45343848692846815823e-02
724 3   2.03803962152709072786e-02
724 4   4.38500633300226219657e-02
725 8  -3.64941237596493744944e-02
725 7  -7.16129793881706416814e-02
725 6   4.59506566456488550060e-03
725 4   5.13430943182280677406e-02
725 5   4.74603102124594167233e-02
725 1   1.78862958664369464667e-02
725 2  -3.46612496999304450784e-02
725 3   2.52774104047716156873e-02
726 8  -4.23445785319474382602e-02
726 7  -7.11866916508884783887e-02
726 5   5.04583815095458534938e-02
726 6  -2.86628578094903584898e-10
726 2  -3.85620217529364997522e-02
726 1   2.10546692639370508493e-02
726 3   3.00334361951778705535e-02
726 4   5.67341329925604501150e-02
727 7  -6.49633756904498260720e-02
727 8  -4.71937622890879898696e-02
727 6  -6.65023948153802522965e-03
727 5   5.08835082605760546937e-02
727 2  -4.10148833374575083610e-02
727 1   2.40069932632343691070e-02
727 3   3.46121015216388841496e-02
727 4   5.98024695963004712662e-02
728 7  -5.35534492187328819979e-02
728 8  -5.07528015380613317653e-02
728 4   6.04224860684040299130e-02
728 6  -1.50338622230189213058e-02
728 5   4.89848773365408191038e-02
728 1   2.67129730249676712595e-02
728 2  -4.19377582835367482272e-02
728 3   3.89734983591327327490e-02
729 8  -5.27267586743631680446e-02
729 7  -3.80114507983904809096e-02
729 1   2.91448415350129969026e-02
729 6  -2.46460443201878195985e-02
729 5   4.52007681415594053664e-02
729 2  -4.13096775934997245683e-02
729 3   4.30743025701289042328e-02
729 4   5.85687988616813010045e-02
730 5   4.01156426002866259295e-02
730 7  -1.97389883481604543058e-02
730 8  -5.28403943706420645143e-02
730 6  -3.48425199401266247334e-02
730 2  -3.91714653847838878420e-02
730 1   3.12776445316225865101e-02
730 3   4.68681599369532436716e-02
730 4   5.43172981482098887751e-02
731 8  -5.08672688838638503706e-02
731 7  -3.57161166149182131464e-04
731 6  -4.48962388107310705898e-02
731 1   3.30894965699184279151e-02
731 5   3.44041016235114016641e-02
731 2  -3.56239124924188632626e-02
731 3   5.03063368139217911845e-02
731 4   4.78420408667590141283e-02
732 2  -3.08235140951431708933e-02
732 7   1.84398829915089108866e-02
732 8  -4.66593552028832375678e-02
732 6  -5.40619160865946704608e-02
732 5   2.87668734430326818174e-02
732 1   3.45618055961712522528e-02
732 3   5.33386215583860484601e-02
732 4   3.94081248112728432798e-02
733 7   3.50369157949306508915e-02
733 8  -4.01740858100275294307e-02
733 6  -6.16425761892033519107e-02
733 5   2.38647269819239407629e-02
733 2  -2.49759472626339094903e-02
733 1   3.56794637274290560303e-02
733 3   5.59144510591068830130e-02
733 4   2.93608354960299237912e-02
734 7   4.80413225590274675647e-02
734 8  -3.14958008444027534600e-02
734 6  -6.70520057437043737192e-02
734 5   2.02563904464037811137e-02
734 2  -1.83275566392490374401e-02
734 1   3.64310022788416065787e-02
734 3   5.79842257760465329408e-02
734 4   1.81115101261269499655e-02
735 7   5.64055254159626096033e-02
735 8  -2.08489121640064063723e-02
735 4   6.12069740396167013413e-03
735 6  -6.98674024684211858460e-02
735 5   1.83461844707967537682e-02
735 1   3.68087094478832185795e-02
735 2  -1.11551978046486605783e-02
735 3   5.95007672012016416985e-02
736 8  -8.60072023627185371086e-03
736 7   5.95171239783144623292e-02
736 1   3.68087094478831144961e-02
736 6  -6.98674024699833251528e-02
736 5   1.83461844687297336021e-02
736 2  -3.75485485653456870989e-03
736 3   6.04208639531513547194e-02
736 4  -6.12069738875039258408e-03
737 5   2.02563904402832221929e-02
737 7   5.72487290355328595770e-02
737 8   4.74733252245589879698e-03
737 6  -6.70520057483258019593e-02
737 2   3.57050129529412098306e-03
737 1   3.64310022788416273953e-02
737 3   6.07068471627666556012e-02
737 4  -1.81115101108960362131e-02
738 8   1.85801908583322211710e-02
738 7   4.99631778831554698717e-02
738 6  -6.16425761966966218042e-02
738 1   3.56794637274291046025e-02
738 5   2.38647269720029669982e-02
738 2   1.05233165935857252843e-02
738 3   6.03281326411296281442e-02
738 4  -2.93608354807750118742e-02
739 8   3.22006577780267894129e-02
739 6  -5.40619160966534922919e-02
739 7   3.84739177686084996011e-02
739 5   2.87668734297177042247e-02
739 1   3.45618055961713979696e-02
739 2   1.68236116494925001807e-02
739 3   5.92626666931602708033e-02
739 4  -3.94081247960213071346e-02
740 8   4.48699422138880837929e-02
740 6  -4.48962388229447381671e-02
740 7   2.39644505630855278455e-02
740 5   3.44041016073490316107e-02
740 2   2.22203962143473071622e-02
740 1   3.30894965699185250596e-02
740 3   5.74982143975847070916e-02
740 4  -4.78420408515835282603e-02
741 4  -5.43172981332317172942e-02
741 6  -3.48425199539952948347e-02
741 7   7.87447069226054202629e-03
741 8   5.58545221743181538598e-02
741 5   4.01156425819361520113e-02
741 1   3.12776445316225656934e-02
741 2   2.65018734892405946613e-02
741 3   5.50334336562189746500e-02
742 8   6.44758806644551152321e-02
742 6  -2.46460443351448656168e-02
742 7  -8.23664270359030122048e-03
742 5   4.52007681217719281541e-02
742 2   2.95040172379900725308e-02
742 1   2.91448415350130211887e-02
742 3   5.18786851595537112924e-02
742 4  -5.85687988470730350188e-02
743 4  -6.04224860543830857851e-02
743 6  -1.50338622384502598045e-02
743 7  -2.28362762108852354603e-02
743 8   7.01592707700341711163e-02
743 5   4.89848773161285291899e-02
743 1   2.67129730249676469733e-02
743 2   3.11171715187610123388e-02
743 3   4.80565373610344070965e-02
744 8   7.24775885415700205083e-02
744 6  -6.65023949681130786826e-03
744 7  -3.45614024415191248285e-02
744 4  -5.98024695831320951545e-02
744 5   5.08835082403732291700e-02
744 1   2.40069932632344697210e-02
744 2   3.12904040259532889579e-02
744 3   4.36019362520687417395e-02
745 5   5.04583814903806077146e-02
745 7  -4.23445785180498260325e-02
745 8   7.11866916570602636938e-02
745 6  -3.01116047341348476760e-10
745 2   3.00334362114196042060e-02
745 1   2.10546692639370022770e-02
745 3   3.85620217640093437828e-02
745 4  -5.67341329805237867823e-02
746 7  -4.55115258724992782779e-02
746 6   4.59506565145552728358e-03
746 5   4.74603101951154224269e-02
746 8   6.62490822459012862478e-02
746 1   1.78862958664368701389e-02
746 2   2.74160727566860398796e-02
746 3   3.29955855167497758007e-02
746 4  -5.13430943076216908527e-02
747 8   5.78437288485970715901e-02
747 6   7.02276106890062021271e-03
747 7  -4.38413546085057378998e-02
747 5   4.18550129251299696254e-02
747 2   2.35651555240400829849e-02
747 1   1.45343848692847128073e-02
747 3   2.69721778744652362914e-02
747 4  -4.38500633211289514435e-02
748 4  -3.45618055900565393501e-02
748 6   7.38759844851737818017e-03
748 7  -3.75839749419460619762e-02
748 8   4.63608653231410566820e-02
748 5   3.38294315545696402947e-02
748 1   1.10333314151744889264e-02
748 2   1.86591686236559917145e-02
748 3   2.05708853301500571575e-02
749 8   3.23817846407769144301e-02
749 6   5.99785668122905339661e-03
749 7  -2.74332153515182732006e-02
749 5   2.37779420284095696636e-02
749 2   1.29207175388576095409e-02
749 1   7.41906105023261951137e-03
749 3   1.38788116004723537100e-02
749 4  -2.38585834772470778420e-02
750 4  -1.21785881535938483172e-02
750 6   3.33379851460294121882e-03
750 7  -1.44582751935719497349e-02
750 8   1.66448427959843894830e-02
750 5   1.22696883528530028412e-02
750 1   3.72866107930097060580e-03
750 2   6.60719240801792458140e-03
750 3   6.98930697682133977855e-03
751 8  -8.53527485628484579305e-03
751 6   2.01835813773511112135e-03
751 7  -1.90794967462850836859e-02
751 4   1.10213440723169256441e-02
751 5   1.12370665427889149246e-02
751 1   3.16756033609526862355e-03
751 2  -6.93788302159880666820e-03
751 3   4.71914140568504940354e-03
752 5   2.18189312362490027419e-02
752 7  -3.65711695640413211872e-02
752 8  -1.69260548973198775291e-02
752 6   3.47611085558807795387e-03
752 2  -1.36126948474015099094e-02
752 1   6.30261721673836851354e-03
752 3   9.41371468053977915325e-03
752 4   2.15914730233674537208e-02
753 8  -2.50149635097941247519e-02
753 7  -5.10261925969701726769e-02
753 6   3.86792521515572172014e-03
753 4   3.12776445319690662994e-02
753 5   3.11466354004846721071e-02
753 1   9.37300071591614866739e-03
753 2  -1.97719193020971135966e-02
753 3   1.40584271021151740316e-02
754 8  -3.26211119950987199489e-02
754 7  -6.12612588452339998368e-02
754 5   3.87285875234864088168e-02
754 6   2.79390403063955539489e-03
754 2  -2.51837203352457926486e-02
754 1   1.23472045440281685130e-02
754 3   1.86265841859676734016e-02
754 4   3.96833055984914043202e-02
755 7  -6.64612796806771100044e-02
755 8  -3.95337219869597439326e-02
755 6  -2.50697691495683447948e-10
755 5   4.42219180498877456609e-02
755 2  -2.96462248716331533416e-02
755 1   1.51947093450517656255e-02
755 3   2.30895052341675913188e-02
755 4   4.64643274712668793991e-02
756 7  -6.62490822330297213227e-02
756 8  -4.55115258873228234471e-02
756 4   5.13430943180998369813e-02
756 6  -4.59506620317658848185e-03
756 5   4.74603101605358124182e-02
756 1   1.78862958664368562611e-02
756 2  -3.29955855065558814609e-02
756 3   2.74160727418152269652e-02
757 8  -5.02888163510534155765e-02
757 7  -6.07159192098607608523e-02
757 1   2.03943447881771121322e-02
757 6  -1.08888848176235016052e-02
757 5   4.84657909851585327887e-02
757 2  -3.51124950312664899088e-02
757 3   3.15724507814433216768e-02
757 4   5.41198688510747261127e-02
758 5   4.74434372819257516030e-02
758 7  -5.04101599861328728003e-02
758 8  -5.35882482662440248755e-02
758 6  -1.86014786486108363306e-02
758 2  -3.59268880677572413629e-02
758 1   2.26931201344062541403e-02
758 3   3.55219998568964620556e-02
758 4   5.46809695945723456267e-02
759 8  -5.51396926535097919864e-02
759 7  -3.62853205595799060967e-02
759 6  -2.72979310519936256563e-02
759 1   2.47590333593383157829e-02
759 5   4.47595147820835717600e-02
759 2  -3.54206392033369898975e-02
759 3   3.92254068008241266186e-02
759 4   5.30034250182563337894e-02
760 8  -5.47036827511327844453e-02
760 6  -3.64254812298301436368e-02
760 7  -1.96122676258904532487e-02
760 5   4.09050875959219226163e-02
760 1   2.65708853976660830387e-02
760 2  -3.36281489110864806324e-02
760 3   4.26410384571310613344e-02
760 4   4.91559139942095296716e-02
761 8  -5.20973562490086444798e-02
761 6  -4.53617113623517240195e-02
761 7  -1.86366338505610787055e-03
761 5   3.64484641718099341978e-02
761 2  -3.06347948707038700289e-02
761 1   2.81100841956580665970e-02
761 3   4.57255175548063330648e-02
761 4   4.32959540758458272247e-02
762 4   3.56634527107632312570e-02
762 6  -5.34694318174326332915e-02
762 7   1.54187914005624853581e-02
762 8  -4.72203513518895945378e-02
762 5   3.19808673215384517419e-02
762 1   2.93608354907870031103e-02
762 2  -2.65733135327173540519e-02
762 3   4.84345087777105567928e-02
763 8  -4.00779079227688295184e-02
763 6  -6.01532528993029072528e-02
763 7   3.07622343243046519889e-02
763 5   2.80603341527997096616e-02
763 2  -2.16182613280468914618e-02
763 1   3.03103048822366931414e-02
763 3   5.07236930051811543696e-02
763 4   2.65708854016544239462e-02
764 4   1.63905029224992761228e-02
764 6  -6.49126735032024698713e-02
764 7   4.28931364790125710384e-02
764 8  -3.07984859390593793127e-02
764 5   2.51590107020790952619e-02
764 1   3.09487495292216294174e-02
764 2  -1.59787833544175993106e-02
764 3   5.25498984662603960127e-02
765 8  -1.96435442927914358235e-02
765 6  -6.73868329169907548382e-02
765 7   5.08486348599761911471e-02
765 4   5.53909132815500436509e-03
765 5   2.36186910939638998463e-02
765 1   3.12696181257147917676e-02
765 2  -9.88998646218540097830e-03
765 3   5.38723495092609180879e-02
766 5   2.36186910921699425026e-02
766 7   5.40587147055028582887e-02
766 8  -7.00770028486313867333e-03
766 6  -6.73868329187670839220e-02
766 2  -3.60327058819844264076e-03
766 1   3.12696181257147917676e-02
766 3   5.46539871843504734827e-02
766 4  -5.53909131571412791106e-03
767 8   6.59173314662969168920e-03
767 7   5.23919549697093242524e-02
767 6  -6.49126735084604861159e-02
767 4  -1.63905029100357563232e-02
767 5   2.51590106967707061170e-02
767 1   3.09487495292216363563e-02
767 2   2.62398538100437140122e-03
767 3   5.48628111532755008417e-02
768 8   2.05359262788314851644e-02
768 7   4.61609087155549629999e-02
768 5   2.80603341441940171141e-02
768 6  -6.01532529078270816747e-02
768 2   8.53896073104891233096e-03
768 1   3.03103048822367555915e-02
768 3   5.44731897869619660635e-02
768 4  -2.65708853891585931872e-02
769 7   3.60868981542079581004e-02
769 8   3.41355604725906910946e-02
769 6  -5.34694318288752232227e-02
769 5   3.19808673099885656943e-02
769 2   1.39037216356293832908e-02
769 1   2.93608354907869406603e-02
769 3   5.34670848154660330320e-02
769 4  -3.56634526982574848186e-02
770 7   2.32277210128862786342e-02
770 8   4.66699126105235215234e-02
770 4  -4.32959540633835737733e-02
770 6  -4.53617113762454157722e-02
770 5   3.64484641577894202813e-02
770 1   2.81100841956579798608e-02
770 2   1.85049188312521803446e-02
770 3   5.18351385942482992264e-02
771 8   5.74313995528306364680e-02
771 7   8.87515019176039580973e-03
771 1   2.65708853976660309970e-02
771 6  -3.64254812456062324055e-02
771 5   4.09050875800045163344e-02
771 2   2.21624576718492879990e-02
771 3   4.95775758950534189973e-02
771 4  -4.91559139818915982745e-02
772 5   4.47595147649218413899e-02
772 7  -5.56814755416515025366e-03
772 8   6.57723796509890462625e-02
772 6  -2.72979310690081300450e-02
772 2   2.47367862719545007766e-02
772 1   2.47590333593382845578e-02
772 3   4.67048779795108531809e-02
772 4  -5.30034250062254089220e-02
773 8   7.11506595926566370869e-02
773 7  -1.87207964645193722375e-02
773 6  -1.86014786661653913624e-02
773 1   2.26931201344063547543e-02
773 5   4.74434372642215870797e-02
773 2   2.61345042327343693445e-02
773 3   4.32381943474913488235e-02
773 4  -5.46809695830120165438e-02
774 4  -5.41198688401997585196e-02
774 7  -2.93517314378885195436e-02
774 8   7.31701015184274272674e-02
774 6  -1.08888848349979472374e-02
774 5   4.84657909676368264806e-02
774 1   2.03943447881771607044e-02
774 2   2.63120634017397631021e-02
774 3   3.92094666748883657892e-02
775 8   7.16129793889972443566e-02
775 7  -3.64941237434620244229e-02
775 5   4.74603101439129357320e-02
775 6  -4.59506621965811729719e-03
775 2   2.52774104196394344690e-02
775 1   1.78862958664367972805e-02
775 3   3.46612497101221744833e-02
775 4  -5.13430943081509827408e-02
776 7  -3.95337219706543424591e-02
776 8   6.64612796878687739355e-02
776 6  -2.65610458838723162294e-10
776 5   4.42219180348454796170e-02
776 2   2.30895052477463093299e-02
776 1   1.51947093450517552171e-02
776 3   2.96462248809807836503e-02
776 4  -4.64643274624891786106e-02
777 7  -3.82635192919809213885e-02
777 8   5.79049382547174862346e-02
777 4  -3.96833055911257545634e-02
777 6   2.79390401790456264705e-03
777 5   3.87285875106373189691e-02
777 1   1.23472045440281216755e-02
777 2   1.98557369900452668210e-02
777 3   2.42264136385633849224e-02
778 8   4.63359881802329898193e-02
778 7  -3.28998013607226802435e-02
778 1   9.37300071591621285216e-03
778 6   3.86792520512009444303e-03
778 5   3.11466353903536719017e-02
778 2   1.57273445542966440469e-02
778 3   1.84721086847487170335e-02
778 4  -3.12776445262302194017e-02
779 5   2.18189312292544519700e-02
779 7  -2.40582232325258493777e-02
779 8   3.23286818862319677570e-02
779 6   3.47611084866071215482e-03
779 2   1.08930315068272390994e-02
779 1   6.30261721673836851354e-03
779 3   1.24605517506320671861e-02
779 4  -2.15914730194360637849e-02
780 8   1.66067523088274555942e-02
780 7  -1.26922768131014877813e-02
780 6   2.01835813419982273986e-03
780 1   3.16756033609525344472e-03
780 5   1.12370665392194750420e-02
780 2   5.57103851422214354366e-03
780 3   6.27439609559977268249e-03
780 4  -1.10213440703176620422e-02
781 8  -8.35688322372357857148e-03
781 6   1.05768528175678722114e-03
781 7  -1.65661576534108685721e-02
781 5   9.71365861401560920507e-03
781 1   2.57395613744026670669e-03
781 2  -5.66605146940451619847e-03
781 3   4.06266905110216122038e-03
781 4   9.41288486737483151567e-03
782 8  -1.65466659343077027167e-02
782 6   1.66579972343829552268e-03
782 7  -3.17651189199201627877e-02
782 5   1.88889243830416518610e-02
782 2  -1.11180408097574217469e-02
782 1   5.12150000178386230476e-03
782 3   8.10303550507758540977e-03
782 4   1.84404051223170245555e-02
783 4   2.67129730249091208727e-02
783 6   1.41962551701626800253e-03
783 7  -4.43488544917714153093e-02
783 8  -2.43930346050705917915e-02
783 5   2.70331689285662341016e-02
783 1   7.61649034559745870265e-03
783 2  -1.61504858739112445998e-02
783 3   1.20982319592171112116e-02
784 8  -3.17030993726159990298e-02
784 6  -1.91015724069666046366e-10
784 7  -5.32969942669285490222e-02
784 5   3.37411323428824586057e-02
784 2  -2.05747150985524131228e-02
784 1   1.00333251916874723747e-02
784 3   1.60242996878638827019e-02
784 4   3.38919086732412250251e-02
785 4   3.96833055983945859335e-02
785 6  -2.79390446942838661937e-03
785 7  -5.79049382439338344852e-02
785 8  -3.82635193071790558061e-02
785 5   3.87285874919260225679e-02
785 1   1.23472045440280956546e-02
785 2  -2.42264136304865644600e-02
785 3   1.98557369783559298226e-02
786 8  -4.38413546228548431372e-02
786 6  -7.02276155469519405145e-03
786 7  -5.78437288323316450844e-02
786 4   4.38500633298023051454e-02
786 5   4.18550128605988808195e-02
786 1   1.45343848692847076032e-02
786 2  -2.69721778656310216815e-02
786 3   2.35651555112127812641e-02
787 5   4.31332292101739914192e-02
787 7  -5.31863876572198704396e-02
787 8  -4.81903338861874377952e-02
787 6  -1.25982755348064360407e-02
787 2  -2.87148118275131168653e-02
787 1   1.65724227375931253137e-02
787 3   2.71230730917142136283e-02
787 4   4.62215943163881565203e-02
788 8  -5.10625795146736408125e-02
788 7  -4.43984582400264796154e-02
788 6  -1.92882048736513732334e-02
788 4   4.67008078009328933544e-02
788 5   4.27251495310545931217e-02
788 1   1.84404051225214790644e-02
788 2  -2.93971502458948430458e-02
788 3   3.04978648511691520506e-02
789 8  -5.22251608127660554848e-02
789 7  -3.22937349760119077335e-02
789 5   4.09240636560307680103e-02
789 6  -2.67347994636082768316e-02
789 2  -2.90042534204032961820e-02
789 1   2.01191639970213186073e-02
789 3   3.36558878019479201793e-02
789 4   4.52680847270965705520e-02
790 7  -1.79593033162546676651e-02
790 8  -5.14802093952900149953e-02
790 6  -3.44849885259843197405e-02
790 5   3.81251118091955956690e-02
790 2  -2.75638855041046362815e-02
790 1   2.15914730233226458134e-02
790 3   3.65617856545166555748e-02
790 4   4.19820809458788593571e-02
791 7  -2.65677957392466143963e-03
791 8  -4.86868031293119785108e-02
791 4   3.69773258381933256356e-02
791 6  -4.20295774210514352931e-02
791 5   3.47866822413680151782e-02
791 1   2.28422243184714483799e-02
791 2  -2.51452579943907787718e-02
791 3   3.91789724228356062152e-02
792 8  -4.37824584489012527677e-02
792 7   1.22912300613949344863e-02
792 1   2.38585834816492509125e-02
792 6  -4.88478823898192068831e-02
792 5   3.13862978301812992066e-02
792 2  -2.18560911025348497683e-02
792 3   4.14702849100452228259e-02
792 4   3.04587146662012378528e-02
793 5   2.83750590257562593233e-02
793 7   2.56191262528390473197e-02
793 8  -3.68019090128811482421e-02
793 6  -5.44537304969237787033e-02
793 2  -1.78381143883011225593e-02
793 1   2.46301212924953522032e-02
793 3   4.33987860360026400652e-02
793 4   2.26931201372085750156e-02
794 8  -2.78909141300506362160e-02
794 7   3.62300818566754639916e-02
794 6  -5.84386236303912759427e-02
794 1   2.51489207290192078037e-02
794 5   2.61348397416491795564e-02
794 2  -1.32611917803644330932e-02
794 3   4.49286934874292900877e-02
794 4   1.39984666036633651626e-02
795 6  -6.05081221504047694904e-02
795 7   4.32915013420469910188e-02
795 8  -1.73131346760336049528e-02
795 5   2.49421769060209456981e-02
795 2  -8.31631224940492311259e-03
795 1   2.54096582069588891595e-02
795 3   4.60264016597109193452e-02
795 4   4.73071420281835804122e-03
796 6  -6.05081221521722931178e-02
796 7   4.63056291731780214627e-02
796 8  -5.44861699250545269968e-03
796 5   2.49421769045371118090e-02
796 2  -3.20773366171363391239e-03
796 1   2.54096582069590244679e-02
796 4  -4.73071419311550927372e-03
796 3   4.66615595976188832217e-02
797 4  -1.39984665939390656719e-02
797 7   4.51490666026462192373e-02
797 8   7.21690417274217701354e-03
797 6  -5.84386236356233199074e-02
797 5   2.61348397372605754929e-02
797 1   2.51489207290191245370e-02
797 2   1.85539817509641573844e-03
797 3   4.68081638605478481119e-02
798 7   4.00778236305838475584e-02
798 6  -5.44537305054076242739e-02
798 8   2.01118917034199401472e-02
798 5   2.83750590186425677430e-02
798 2   6.66761196602846592518e-03
798 1   2.46301212924952446504e-02
798 4  -2.26931201274486217534e-02
798 3   4.64456231064290930854e-02
799 4  -3.04587146564186742048e-02
799 7   3.16976993020021829972e-02
799 8   3.26072669933143918786e-02
799 6  -4.88478824012087073370e-02
799 5   3.13862978206343803955e-02
799 1   2.38585834816490982568e-02
799 2   1.10355043344162115360e-02
799 3   4.55597508101291126525e-02
800 8   4.40514427047580259256e-02
800 7   2.09029583993192540070e-02
800 6  -4.20295774348809214604e-02
800 4  -3.69773258284307876353e-02
800 5   3.47866822297785149853e-02
800 1   2.28422243184714622577e-02
800 2   1.47856207433942395818e-02
800 3   4.41436439381364328916e-02
801 8   5.38098421508402119384e-02
801 7   8.78916494947934272275e-03
801 5   3.81251117960391683326e-02
801 6  -3.44849885416883897293e-02
801 2   1.77715016673105179190e-02
801 1   2.15914730233227394884e-02
801 3   4.21984085498751729237e-02
801 4  -4.19820809362125707542e-02
802 7  -3.45162185087934288152e-03
802 8   6.13061093648369012654e-02
802 5   4.09240636418479741820e-02
802 6  -2.67347994805456970480e-02
802 2   1.98796061071621413263e-02
802 1   2.01191639970212284017e-02
802 3   3.97336980737539036124e-02
802 4  -4.52680847176422443412e-02
803 6  -1.92882048911273140668e-02
803 7  -1.46434997553244149182e-02
803 8   6.60619257544406701665e-02
803 5   4.27251495164221381517e-02
803 2   2.10338706851524032126e-02
803 1   1.84404051225214998810e-02
803 4  -4.67008077918334776890e-02
803 3   3.67680362327832896407e-02
804 4  -4.62215943078187266324e-02
804 7  -2.37367553093097288786e-02
804 8   6.77323154672742483440e-02
804 6  -1.25982755521029509554e-02
804 5   4.31332291956925059639e-02
804 1   1.65724227375931114359e-02
804 2   2.11987185847067986788e-02
804 3   3.33289040300586009158e-02
805 7  -2.99050940299172667014e-02
805 6  -7.02276157110204215378e-03
805 8   6.61335519298036911273e-02
805 5   4.18550128468596696618e-02
805 2   2.03803962280946354690e-02
805 1   1.45343848692847960741e-02
805 4  -4.38500633219509328153e-02
805 3   2.94525785585174441905e-02
806 4  -3.96833055914596610769e-02
806 7  -3.26211119788989700741e-02
806 8   6.12612588482758096964e-02
806 6  -2.79390448427408073784e-03
806 5   3.87285874794916079589e-02
806 1   1.23472045440282188200e-02
806 2   1.86265841976565940663e-02
806 3   2.51837203433197057145e-02
807 8   5.32969942734171087118e-02
807 7  -3.17030993578733821803e-02
807 6  -2.03692097447646920511e-10
807 4  -3.38919086674129704795e-02
807 5   3.37411323322608577846e-02
807 1   1.00333251916873908427e-02
807 2   1.60242996979101416655e-02
807 3   2.05747151055127829034e-02
808 8   4.26024607096202947987e-02
808 7  -2.73289475341034794609e-02
808 5   2.70331689201930812361e-02
808 6   1.41962550702580793741e-03
808 2   1.26961779249020710603e-02
808 1   7.61649034559742921235e-03
808 3   1.56847848877003925860e-02
808 4  -2.67129730203655609000e-02
809 7  -2.00159969048548484760e-02
809 8   2.97014275983140882409e-02
809 6   1.66579971654335105488e-03
809 4  -1.84404051192004550530e-02
809 5   1.88889243772607448579e-02
809 1   5.12150000178378771165e-03
809 2   8.79528618614398155495e-03
809 3   1.05788920461003972673e-02
810 8   1.52504061429831576369e-02
810 7  -1.05688310171778085400e-02
810 5   9.71365861106564427996e-03
810 6   1.05768527823739866452e-03
810 2   4.49868477665595414838e-03
810 1   2.57395613744027711503e-03
810 3   5.32646734697494930039e-03
810 4  -9.41288486578961171303e-03
811 7  -1.32223218895384849597e-02
811 8  -7.23695456550790556377e-03
811 6   4.38717516525662608578e-04
811 5   7.73801703399212489898e-03
811 2  -4.31817187793679790192e-03
811 1   1.95393966569003957323e-03
811 3   3.22048466326190982456e-03
811 4   7.41906105001410767080e-03
812 7  -2.53602823212792857777e-02
812 8  -1.43155837557628669993e-02
812 4   1.45343848689420337972e-02
812 6   5.39894251975404156248e-04
812 5   1.50635925924391921027e-02
812 1   3.88782926630169313464e-03
812 2  -8.47367100749033333451e-03
812 3   6.42263899445532585736e-03
813 8  -2.10713904892745121367e-02
813 7  -3.54237219801088396021e-02
813 1   5.78182447755607245576e-03
813 6  -1.22158761341479101402e-10
813 5   2.15990642352039581564e-02
813 2  -1.23103396558861197252e-02
813 3   9.58771827262199123620e-03
813 4   2.10546692636250920572e-02
814 5   2.70331689125339925950e-02
814 7  -4.26024607020624307419e-02
814 8  -2.73289475463289466273e-02
814 6  -1.41962582294284027189e-03
814 2  -1.56847848821713813094e-02
814 1   7.61649034559742227346e-03
814 3   1.26961779169422819824e-02
814 4   2.67129730248517674451e-02
815 8  -3.28998013735390393286e-02
815 7  -4.63359881688124516930e-02
815 6  -3.86792556784757270497e-03
815 1   9.37300071591620591327e-03
815 5   3.11466353567950021697e-02
815 2  -1.84721086783220210525e-02
815 3   1.57273445450239607313e-02
815 4   3.12776445318245430172e-02
816 6  -7.38759884069589353728e-03
816 7  -4.63608653069885051634e-02
816 8  -3.75839749543499315743e-02
816 5   3.38294314827894543329e-02
816 2  -2.05708853231046581711e-02
816 1   1.10333314151743588222e-02
816 3   1.86591686134654523299e-02
816 4   3.45618055967283968610e-02
817 6  -1.19084429701709158117e-02
817 7  -4.27316528124697878055e-02
817 8  -4.11755780320265107886e-02
817 5   3.50881142329276252134e-02
817 2  -2.19071835706393137910e-02
817 1   1.25804452036116717895e-02
817 4   3.64310022797064841926e-02
817 3   2.14680799907506734969e-02
818 4   3.68087094489493241167e-02
818 7  -3.58135796250414820130e-02
818 8  -4.34725313553236472619e-02
818 6  -1.72511999283911504621e-02
818 5   3.50426358699127693530e-02
818 1   1.39984666001814334058e-02
818 2  -2.24374703407395140187e-02
818 3   2.41289631204091269134e-02
819 7  -2.62477190851332885246e-02
819 6  -2.31415826159564672060e-02
819 8  -4.42898880489438692698e-02
819 5   3.39129262489696117755e-02
819 2  -2.21502782964050209946e-02
819 1   1.52728447864687484625e-02
819 4   3.56794637285863872056e-02
819 3   2.66152629479473844254e-02
820 4   3.30894965711045763168e-02
820 7  -1.48919210925457269623e-02
820 8  -4.34757436998789090210e-02
820 6  -2.92332189082903648458e-02
820 5   3.19965065501384773872e-02
820 1   1.63905029177778167881e-02
820 2  -2.10665702143371241783e-02
820 3   2.88992267390114770942e-02
821 8  -4.09283189938853195211e-02
821 7  -2.74292901468854667321e-03
821 6  -3.51374317196280760989e-02
821 4   2.91448415362544101248e-02
821 5   2.96392104907819212145e-02
821 1   1.73399723092549987169e-02
821 2  -1.92387863096100536486e-02
821 3   3.09522805631461152276e-02
822 8  -3.66125191066980285037e-02
822 7   9.15320786198234141728e-03
822 5   2.72017189292733385653e-02
822 6  -4.04571440299065152035e-02
822 2  -1.67486144863910023373e-02
822 1   1.81115101201113626317e-02
822 3   3.27455328255677260985e-02
822 4   2.40069932646544345611e-02
823 7   1.97942843689158098908e-02
823 8  -3.05741552448449242785e-02
823 6  -4.48218169612893541087e-02
823 4   1.78862958682316566805e-02
823 5   2.50249952619967970524e-02
823 1   1.86971993283551914111e-02
823 2  -1.37035756509676157067e-02
823 3   3.42503910693372909391e-02
824 8  -2.29500734678481921325e-02
824 7   2.83102225550249664288e-02
824 5   2.33978071420376486367e-02
824 6  -4.79202315435812500888e-02
824 2  -1.02325646069024445151e-02
824 1   1.90910299701508856529e-02
824 3   3.54392726041191583053e-02
824 4   1.10333314175554975112e-02
825 7   3.40385394402705557249e-02
825 8  -1.39726750608431520700e-02
825 6  -4.95281197372264073153e-02
825 5   2.25293258368020644922e-02
825 2  -6.48052967540584893419e-03
825 1   1.92889608101788033456e-02
825 3   3.62863845880333560356e-02
825 4   3.72866108243010254200e-03
826 7   3.65802549696348858199e-02
826 8  -3.96771490868957996817e-03
826 4  -3.72866107535106249687e-03
826 6  -4.95281197387736696336e-02
826 5   2.25293258356611368620e-02
826 1   1.92889608101788831429e-02
826 2  -2.60250930334474626926e-03
826 3   3.67685452087643041552e-02
827 8   6.65520274459941579837e-03
827 7   3.58313110108042717772e-02
827 1   1.90910299701508752446e-02
827 6  -4.79202315481595253477e-02
827 5   2.33978071386611238824e-02
827 2   1.24272989960030064496e-03
827 3   3.68660147538479240903e-02
827 4  -1.10333314104545786999e-02
828 5   2.50249952565255902315e-02
828 7   3.19868315063218319749e-02
828 8   1.74193935417067610749e-02
828 6  -4.48218169687109729837e-02
828 2   4.89919308459052255805e-03
828 1   1.86971993283553128418e-02
828 3   3.65633037568207294732e-02
828 4  -1.78862958610979984331e-02
829 8   2.78044407282561321926e-02
829 7   2.55180493690705285925e-02
829 6  -4.04571440398691709039e-02
829 1   1.81115101201113522233e-02
829 5   2.72017189219295567326e-02
829 2   8.22002894045573313797e-03
829 3   3.58499251336239083132e-02
829 4  -2.40069932574948421977e-02
830 4  -2.91448415290976176051e-02
830 7   1.71242283284870344673e-02
830 8   3.72748139858807212010e-02
830 6  -3.51374317317241571801e-02
830 5   2.96392104818651268283e-02
830 1   1.73399723092549848391e-02
830 2   1.10735126129387906335e-02
830 3   3.47210583059326047262e-02
831 8   4.53119169727390636027e-02
831 7   7.66418833127272859651e-03
831 5   3.19965065400192594236e-02
831 6  -2.92332189220277961772e-02
831 2   1.33483951244804978364e-02
831 1   1.63905029177779520966e-02
831 3   3.31780957129293591068e-02
831 4  -3.30894965640067123536e-02
832 7  -1.92610735032120393949e-03
832 8   5.14473230570622885871e-02
832 6  -2.31415826307720014221e-02
832 5   3.39129262380598664461e-02
832 2   1.49584007341240620564e-02
832 1   1.52728447864687710139e-02
832 3   3.12290457544597555017e-02
832 4  -3.56794637216329910134e-02
833 7  -1.07221952210841669356e-02
833 8   5.52947375131039794982e-02
833 4  -3.68087094422459779053e-02
833 6  -1.72511999436781790496e-02
833 5   3.50426358586569466902e-02
833 1   1.39984666001814143238e-02
833 2   1.58456887019062901689e-02
833 3   2.88887709493217612056e-02
834 8   5.65782050067602029775e-02
834 7  -1.78977399649304889928e-02
834 1   1.25804452036116076047e-02
834 6  -1.19084429853003586491e-02
834 5   3.50881142217860861332e-02
834 2   1.59831384548374047516e-02
834 3   2.61790457502916497357e-02
834 4  -3.64310022733827926222e-02
835 5   3.38294314722208389057e-02
835 7  -2.28011273258537025543e-02
835 8   5.51542708913889956346e-02
835 6  -7.38759885504823056446e-03
835 2   1.53753654495564235499e-02
835 1   1.10333314151744091292e-02
835 3   2.31284248119241926667e-02
835 4  -3.45618055909271901238e-02
836 8   5.10261925974661231797e-02
836 7  -2.50149634955038197015e-02
836 6  -3.86792558083403877414e-03
836 1   9.37300071591613478961e-03
836 5   3.11466353472301359095e-02
836 2   1.40584271113857704749e-02
836 3   1.97719193085192992965e-02
836 4  -3.12776445266949310042e-02
837 6  -1.41962583403292376752e-03
837 7  -2.43930345922640061385e-02
837 8   4.43488544952263391563e-02
837 5   2.70331689043620398971e-02
837 2   1.20982319671766730407e-02
837 1   7.61649034559735635397e-03
837 3   1.61504858794380493081e-02
837 4  -2.67129730205384573194e-02
838 6  -1.30897929088869462613e-10
838 7  -2.10713904787719411016e-02
838 8   3.54237219847307951981e-02
838 5   2.15990642287627737650e-02
838 2   9.58771827892392243531e-03
838 1   5.78182447755610801760e-03
838 4  -2.10546692602570466313e-02
838 3   1.23103396602703366730e-02
839 4  -1.45343848666312051854e-02
839 7  -1.54526315668603725362e-02
839 8   2.46839226074270570721e-02
839 6   5.39894245942446385743e-04
839 5   1.50635925879915050923e-02
839 1   3.88782926630168315998e-03
839 2   6.64291894801736539089e-03
839 3   8.30210936775072592952e-03
840 7  -8.16497226837942756406e-03
840 6   4.38717513446772113157e-04
840 8   1.26703013135783838783e-02
840 5   7.73801703172193738878e-03
840 2   3.39807512936671609130e-03
840 1   1.95393966569013411566e-03
840 4  -7.41906104883892619090e-03
840 3   4.17985828429381141985e-03
841 4   5.12150000158025954511e-03
841 7  -9.20875314383797979878e-03
841 8  -5.31528527671655190434e-03
841 6   1.12548873869353405794e-04
841 5   5.38567197323532986103e-03
841 1   1.31387312886205895150e-03
841 2  -2.91186828394515056020e-03
841 3   2.23173705636631148838e-03
842 8  -1.05081957206569712865e-02
842 7  -1.76656307473631105087e-02
842 6  -5.93012777153407646295e-11
842 4   1.00333251913465194144e-02
842 5   1.04921367581404627323e-02
842 1   2.61426414146384870560e-03
842 2  -5.71426726852694143871e-03
842 3   4.45046897456683344246e-03
843 8  -1.54526315743282616905e-02
843 7  -2.46839226032827506463e-02
843 5   1.50635925863429470661e-02
843 6  -5.39894422308699476268e-04
843 2  -8.30210936470943301757e-03
843 1   3.88782926630171872182e-03
843 3   6.64291894365152176677e-03
843 4   1.45343848689171196986e-02
844 7  -2.97014275918688133715e-02
844 6  -1.66579993712318583446e-03
844 5   1.88889243642304527349e-02
844 8  -2.00159969136111462462e-02
844 1   5.12150000178377383386e-03
844 2  -1.05788920422622903517e-02
844 3   8.79528618062663976318e-03
844 4   1.84404051222474760219e-02
845 8  -2.40582232418063389490e-02
845 6  -3.47611110256068134641e-03
845 7  -3.23286818768774505961e-02
845 5   2.18189311969882032693e-02
845 2  -1.24605517461659348610e-02
845 1   6.30261721673837458507e-03
845 3   1.08930315003950995562e-02
845 4   2.15914730232317844671e-02
846 4   2.38585834817744320280e-02
846 6  -5.99785695665519102276e-03
846 7  -3.23817846279453105951e-02
846 8  -2.74332153606427937842e-02
846 5   2.37779419687198581568e-02
846 1   7.41906105023262905235e-03
846 2  -1.38788115955676746166e-02
846 3   1.29207175317825866817e-02
847 8  -2.99930536762719884836e-02
847 6  -9.18224073801640963688e-03
847 7  -2.98969290275895756281e-02
847 5   2.47687748146757508172e-02
847 2  -1.47838867733612409211e-02
847 1   8.45937527774557988802e-03
847 3   1.48619178687179609444e-02
847 4   2.51489207293366483220e-02
848 4   2.54096582074055735156e-02
848 6  -1.29072428848077992714e-02
848 7  -2.51254014199926434259e-02
848 8  -3.15949440559836619569e-02
848 5   2.48706059251758010431e-02
848 1   9.41288486753455791445e-03
848 2  -1.51464377696505069631e-02
848 3   1.66992062934465217150e-02
849 8  -3.21105487076575532579e-02
849 6  -1.69870678369780439554e-02
849 7  -1.85095761139476462642e-02
849 4   2.46301212930023910586e-02
849 5   2.42299623742510961133e-02
849 1   1.02698055209055026660e-02
849 2  -1.49586923848144936339e-02
849 3   1.84142335242908211645e-02
850 5   2.30456830303574916607e-02
850 7  -1.06421468054347864718e-02
850 8  -3.14369964371287308191e-02
850 6  -2.11875860731913952251e-02
850 2  -1.42346913695216917284e-02
850 1   1.10213440723591921816e-02
850 3   1.99878948791383202754e-02
850 4   2.28422243190054101436e-02
851 8  -2.95085935647935969361e-02
851 7  -2.21234189008630332055e-03
851 6  -2.52463714279520384798e-02
851 4   2.01191639976087376096e-02
851 5   2.15492433689002740871e-02
851 1   1.16597887193685394863e-02
851 2  -1.30096483896730147345e-02
851 3   2.14005879786057437442e-02
852 8  -2.63080682029252083121e-02
852 7   6.05596678875428354183e-03
852 5   1.99822635735893462672e-02
852 6  -2.88955105859779702582e-02
852 2  -1.13384511884723222092e-02
852 1   1.21785881559043837608e-02
852 3   2.26325553199651086089e-02
852 4   1.65724227383260945545e-02
853 7   1.34686392771837006033e-02
853 8  -2.18761028953876786318e-02
853 6  -3.18851055687778550674e-02
853 5   1.85732758527257964254e-02
853 2  -9.29336589504044414956e-03
853 1   1.25724187977040904179e-02
853 3   2.36643024165604821951e-02
853 4   1.23472045450446522852e-02
854 7   1.94223050003811022191e-02
854 8  -1.63179558619429149191e-02
854 4   7.61649034705076753010e-03
854 6  -3.40053245195175782301e-02
854 5   1.75158928958236946583e-02
854 1   1.28372394094475855003e-02
854 2  -6.96103896394899106237e-03
854 3   2.44770783934627027267e-02
855 8  -9.80613969572083701842e-03
855 7   2.34565716303544932742e-02
855 1   1.29703325733011142623e-02
855 6  -3.51049871851195696704e-02
855 5   1.69503888219240013424e-02
855 2  -4.43891989170513891899e-03
855 3   2.50534026218572070110e-02
855 4   2.57395613944334886863e-03
856 5   1.69503888211495548632e-02
856 7   2.52927449294911635413e-02
856 8  -2.57840689957088966752e-03
856 6  -3.51049871862629189745e-02
856 2  -1.83125147210226103291e-03
856 1   1.29703325733010795678e-02
856 3   2.53776183049396510116e-02
856 4  -2.57395613483532700524e-03
857 8   5.06933829670917508042e-03
857 7   2.48556517472498274268e-02
857 6  -3.40053245229016906648e-02
857 1   1.28372394094475837656e-02
857 5   1.75158928935321769882e-02
857 2   7.55208043373509804556e-04
857 3   2.54364520145502585879e-02
857 4  -7.61649034242631826908e-03
858 4  -1.23472045403962473603e-02
858 7   2.22767176177686501704e-02
858 8   1.27951542902935231499e-02
858 6  -3.18851055742625094647e-02
858 5   1.85732758490118679551e-02
858 1   1.25724187977041754194e-02
858 2   3.21555564090105329769e-03
858 3   2.52195571068855629859e-02
859 8   2.02277066673190175639e-02
859 7   1.78781729611728890106e-02
859 5   1.99822635686036781388e-02
859 6  -2.88955105933403275098e-02
859 2   5.45102815867021944785e-03
859 1   1.21785881559045780498e-02
859 3   2.47200187697699004519e-02
859 4  -1.65724227336534087052e-02
860 7   1.21399896047449957354e-02
860 8   2.69865188995933799609e-02
860 6  -2.52463714368910754904e-02
860 5   2.15492433628482332741e-02
860 2   7.37302551151800510121e-03
860 1   1.16597887193685707113e-02
860 3   2.39347991889887652672e-02
860 4  -2.01191639929325025160e-02
861 7   5.65272387440439536693e-03
861 8   3.27045370796927442614e-02
861 4  -2.28422243143613298844e-02
861 6  -2.11875860833423586282e-02
861 5   2.30456830234876779151e-02
861 1   1.10213440723591783038e-02
861 2   8.90670802134091964264e-03
861 3   2.28651029453924292678e-02
862 8   3.70514439434992334799e-02
862 7  -9.39280169034054459622e-04
862 1   1.02698055209054783798e-02
862 6  -1.69870678479244439918e-02
862 5   2.42299623668455338388e-02
862 2   9.99402088565940101283e-03
862 3   2.15166452101273886210e-02
862 4  -2.46301212884470453746e-02
863 5   2.48706059175363529412e-02
863 7  -6.99901019024704029725e-03
863 8   3.97560076244213231322e-02
863 6  -1.29072428961015360505e-02
863 2   1.05960223673217338730e-02
863 1   9.41288486753468281454e-03
863 3   1.98998084999301681763e-02
863 4  -2.54096582030076297010e-02
864 8   4.06257406882533506076e-02
864 7  -1.19565390996878382485e-02
864 6  -9.18224074919498506331e-03
864 1   8.45937527774552958104e-03
864 5   2.47687748071128942262e-02
864 2   1.06944208874910524909e-02
864 3   1.80296775654577232095e-02
864 4  -2.51489207251863328141e-02
865 8   3.95622799492168150670e-02
865 6  -5.99785696726063289469e-03
865 7  -1.53618776735427332164e-02
865 5   2.37779419615436471425e-02
865 1   7.41906105023263078707e-03
865 2   1.02922586799553215237e-02
865 3   1.59259462645973404182e-02
865 4  -2.38585834779612530887e-02
866 8   3.65711695634437367053e-02
866 6  -3.47611111215790713827e-03
866 7  -1.69260548866571776394e-02
866 5   2.18189311904949945209e-02
866 2   9.41371468696833649248e-03
866 1   6.30261721673837545243e-03
866 3   1.36126948518644590169e-02
866 4  -2.15914730198560819718e-02
867 4  -1.84404051194042017947e-02
867 6  -1.66579994531857399596e-03
867 7  -1.65466659248421840700e-02
867 8   3.17651189214890328216e-02
867 5   1.88889243586835182953e-02
867 1   5.12150000178381373250e-03
867 2   8.10303551059346482965e-03
867 3   1.11180408135936048541e-02
868 8   2.53602823238150316965e-02
868 6  -5.39894428768210570685e-04
868 7  -1.43155837480518355331e-02
868 5   1.50635925819699954126e-02
868 2   6.42263899882023186344e-03
868 1   3.88782926630168793047e-03
868 3   8.47367101053109542108e-03
868 4  -1.45343848666963058880e-02
869 4  -1.00333251898209636910e-02
869 6  -6.37600628908399720357e-11
869 7  -1.05081957152001453232e-02
869 8   1.76656307497643702553e-02
869 5   1.04921367551221861314e-02
869 1   2.61426414146378452083e-03
869 2   4.45046897758914327542e-03
869 3   5.71426727063531654516e-03
870 8   9.06601399964449689017e-03
870 6   1.12548871593332210279e-04
870 7  -5.55524816616303693251e-03
870 4  -5.12150000080308521327e-03
870 5   5.38567197169500643666e-03
870 1   1.31387312886203878534e-03
870 2   2.27671034853546127436e-03
870 3   2.87684153089302896422e-03
871 5   2.76328797545204391320e-03
871 7  -4.72541196917819570494e-03
871 8  -2.81085654643770457839e-03
871 6  -1.56119211210385042395e-11
871 2  -1.46594205068045248253e-03
871 1   6.60324475773200569688e-04
871 3   1.14172636813559863662e-03
871 4   2.61426414134139804488e-03
872 8  -5.55524816899308476054e-03
872 7  -9.06601399821670497770e-03
872 5   5.38567197196488604144e-03
872 6  -1.12548934736372106412e-04
872 2  -2.87684152981343204888e-03
872 1   1.31387312886210513851e-03
872 3   2.27671034699008460050e-03
872 4   5.12150000157396163153e-03
873 6  -4.38717604006608923647e-04
873 7  -1.26703013111667608936e-02
873 8  -8.16497227226111940701e-03
873 5   7.73801702903962208141e-03
873 2  -4.17985828273615116907e-03
873 1   1.95393966569006125727e-03
873 4   7.41906104999381661030e-03
873 3   3.39807512713291700809e-03
874 4   9.41288486732930543277e-03
874 7  -1.52504061393125712326e-02
874 8  -1.05688310217483989739e-02
874 6  -1.05768539162065457367e-03
874 5   9.71365860207332870724e-03
874 1   2.57395613744019861879e-03
874 2  -5.32646734500877468144e-03
874 3   4.49868477383213311027e-03
875 7  -1.66067523035929275055e-02
875 6  -2.01835826490102737338e-03
875 8  -1.26922768179775005692e-02
875 5   1.12370665199942321166e-02
875 2  -6.27439609331064459402e-03
875 1   3.16756033609523956693e-03
875 4   1.10213440722358984453e-02
875 3   5.57103851092899220177e-03
876 4   1.21785881558820405224e-02
876 7  -1.66448427889106520539e-02
876 8  -1.44582751984074463214e-02
876 6  -3.33379865665678343234e-03
876 5   1.22696883193113108479e-02
876 1   3.72866107930105907670e-03
876 2  -6.98930697430507740647e-03
876 3   6.60719240439451398206e-03
877 8  -1.57895506260418219679e-02
877 7  -1.53827026699514726044e-02
877 6  -4.97898914877512640403e-03
877 4   1.28372394095161105471e-02
877 5   1.28124471227618070418e-02
877 1   4.25150071414239719841e-03
877 2  -7.44615741204854818258e-03
877 3   7.59871560654546297081e-03
878 8  -1.66122065060276789816e-02
878 7  -1.29483448427057581259e-02
878 5   1.29046756068546455282e-02
878 6  -6.89214574473126940363e-03
878 2  -7.63018168992908585313e-03
878 1   4.73071419845214058419e-03
878 3   8.53668673855734541633e-03
878 4   1.29703325734315828149e-02
879 7  -9.56752707606454803890e-03
879 8  -1.68605293695031077661e-02
879 6  -8.97947034584763506548e-03
879 4   1.25724187978659470571e-02
879 5   1.26195939064991519141e-02
879 1   5.16138415340174940005e-03
879 2  -7.53745505374360785095e-03
879 3   9.41173413828347987797e-03
880 8  -1.64826173822263805091e-02
880 7  -5.54294385290987016296e-03
880 5   1.20567556134598685702e-02
880 6  -1.11229159105063358376e-02
880 2  -7.17501735610302435187e-03
880 1   5.53909132246588071374e-03
880 3   1.02141216605207002521e-02
880 4   1.16597887195462861926e-02
881 7  -1.22676570407310482624e-03
881 8  -1.54463332508702772677e-02
881 6  -1.31902606648655260080e-02
881 5   1.13321633333609370770e-02
881 2  -6.56055156017856105910e-03
881 1   5.85995991897364596618e-03
881 3   1.09338795736752536492e-02
881 4   1.02698055211146756227e-02
882 7   3.01096763339082787794e-03
882 8  -1.37449867008610521896e-02
882 4   8.45937527803715567931e-03
882 6  -1.50465750727150036903e-02
882 5   1.05669681463233591789e-02
882 1   6.12069739692073285647e-03
882 2  -5.72163060642203770423e-03
882 3   1.15609779408706939141e-02
883 8  -1.14021133575347623917e-02
883 7   6.81522965074840125083e-03
883 1   6.31862823695206188290e-03
883 6  -1.65660365757077446269e-02
883 5   9.87579625221593135342e-03
883 2  -4.69456377516228734459e-03
883 3   1.20855377964519776490e-02
883 4   6.30261721718429132610e-03
884 5   9.35577925665050970372e-03
884 7   9.87719239038507834660e-03
884 8  -8.47474117910289835576e-03
884 6  -1.76430141970402125373e-02
884 2  -3.52289002958937986706e-03
884 1   6.45172140080664795886e-03
884 3   1.24980735188919226536e-02
884 4   3.88782926698249143432e-03
885 8  -5.05462273287885562739e-03
885 7   1.19609107178255333337e-02
885 6  -1.82014109917322010335e-02
885 1   6.51861117252047501253e-03
885 5   9.07729893565834000668e-03
885 2  -2.25558022861693406244e-03
885 3   1.27897581404466682137e-02
885 4   1.31387312983572085781e-03
886 8  -1.26705569394650616535e-03
886 6  -1.82014109923391183277e-02
886 7   1.29231252409365386657e-02
886 5   9.07729893526582239105e-03
886 1   6.51861117252045853265e-03
886 2  -9.45021968203562994990e-04
886 3   1.29527019942126449953e-02
886 4  -1.31387312756891519103e-03
887 8   2.73289649814793854724e-03
887 6  -1.76430141988356756211e-02
887 7   1.27244427841229183762e-02
887 5   9.35577925549344567580e-03
887 2   3.55130342485851036374e-04
887 1   6.45172140080653867128e-03
887 3   1.29802341396716060945e-02
887 4  -3.88782926470752562831e-03
888 4  -6.30261721489698296256e-03
888 6  -1.65660365786181838776e-02
888 7   1.14309491495518510823e-02
888 8   6.76675295483068067748e-03
888 5   9.87579625033811400736e-03
888 1   6.31862823695196560575e-03
888 2   1.59215209889365422354e-03
888 3   1.28671754717811573365e-02
889 8   1.06412727252471334127e-02
889 6  -1.50465750766220745377e-02
889 7   9.20618813879951237988e-03
889 5   1.05669681438030332171e-02
889 2   2.71640188307281822688e-03
889 1   6.12069739692068775366e-03
889 3   1.26100923324819202964e-02
889 4  -8.45937527573555753113e-03
890 4  -1.02698055188091361828e-02
890 6  -1.31902606696089972488e-02
890 7   6.29432275270570135151e-03
890 8   1.41589429630576708191e-02
890 5   1.13321633303021876427e-02
890 1   5.85995991897352973971e-03
890 2   3.68334350320817646360e-03
890 3   1.22075198151101217692e-02
891 8   1.71296321330879665334e-02
891 6  -1.11229159158930009099e-02
891 7   2.99609831028982637538e-03
891 4  -1.16597887172549836282e-02
891 5   1.20567556099876616732e-02
891 1   5.53909132246588071374e-03
891 2   4.45535401367448506693e-03
891 3   1.16601447706497496348e-02
892 5   1.26195939027568346941e-02
892 7  -3.60120595767028932495e-04
892 8   1.93826040029696188005e-02
892 6  -8.97947035165475200558e-03
892 2   5.00324385203552469970e-03
892 1   5.16138415340166700068e-03
892 3   1.09709397610782497662e-02
892 4  -1.25724187956148519135e-02
893 8   2.07780125850649845243e-02
893 7  -3.44952634835637376304e-03
893 5   1.29046756029930591303e-02
893 6  -6.89214575072182727977e-03
893 2   5.30742706517948244910e-03
893 1   4.73071419845226201484e-03
893 3   1.01452408126215913586e-02
893 4  -1.29703325712571121420e-02
894 7  -5.98135490675568131519e-03
894 8   2.12169942209437974168e-02
894 4  -1.28372394074610790549e-02
894 6  -4.97898915470462201383e-03
894 5   1.28124471189387852815e-02
894 1   4.25150071414233995254e-03
894 2   5.35869396985036959558e-03
894 3   9.19076373908876004259e-03
895 8   2.06495431102767697251e-02
895 7  -7.72585803895713737338e-03
895 6  -3.33379866228346744689e-03
895 4  -1.21785881539925051192e-02
895 5   1.22696883156841411028e-02
895 1   3.72866107930099012144e-03
895 2   5.15855491430334579805e-03
895 3   8.11755595781306175940e-03
896 8   1.90794967456917700932e-02
896 7  -8.53527485058855513167e-03
896 5   1.12370665167122064237e-02
896 6  -2.01835826999293343684e-03
896 2   4.71914140897461593938e-03
896 1   3.16756033609525951625e-03
896 3   6.93788302388661029529e-03
896 4  -1.10213440705615763060e-02
897 2   4.06266905392398298968e-03
897 7  -8.35688321869328468172e-03
897 6  -1.05768539596999035235e-03
897 8   1.65661576539601618219e-02
897 5   9.71365859926991495610e-03
897 1   2.57395613744031007478e-03
897 3   5.66605147136998131552e-03
897 4  -9.41288486591855544372e-03
898 5   7.73801702682839522007e-03
898 7  -7.23695456142420950885e-03
898 8   1.32223218906331787398e-02
898 6  -4.38717607434789948293e-04
898 2   3.22048466549492524644e-03
898 1   1.95393966569013454934e-03
898 3   4.31817187949383105017e-03
898 4  -7.41906104889119080714e-03
899 8   9.20875314492437813119e-03
899 7  -5.31528527383320990168e-03
899 6  -1.12548937102935946923e-04
899 3   2.91186828502451025211e-03
899 5   5.38567197043883071766e-03
899 1   1.31387312886203813482e-03
899 2   2.23173705791212921568e-03
899 4  -5.12150000081689708159e-03
900 7  -2.81085654494330275388e-03
900 6  -1.68192481754099903801e-11
900 5   2.76328797467445238037e-03
900 3   1.46594205123281012132e-03
900 2   1.14172636892595491531e-03
900 1   6.60324475773151997431e-04
900 8   4.72541196983503400397e-03
900 4  -2.61426414095565278969e-03
